*HEADING
Hybrid Octree Hex Mesh converted from VTK
*NODE
1, 5.969956, 49.328053, 31.220318
2, 8.054308, 48.705436, 30.773853
3, 8.058783, 51.272837, 30.763353
4, 5.980426, 50.694873, 31.209954
5, 4.945695, 48.689201, 33.142874
6, 7.532287, 48.211356, 32.641147
7, 7.540986, 51.794391, 32.628281
8, 4.947177, 51.367621, 33.141622
9, 8.782568, 46.534233, 30.951307
10, 11.043708, 46.395563, 30.700182
11, 10.921604, 48.615527, 30.444789
12, 7.959894, 45.522777, 33.061793
13, 10.890590, 45.284336, 32.860532
14, 10.937500, 48.437500, 32.812500
15, 13.829430, 46.351520, 30.677660
16, 13.995229, 48.600115, 30.421436
17, 13.912407, 45.227489, 32.846927
18, 14.062500, 48.437500, 32.812500
19, 10.928723, 51.350374, 30.437466
20, 10.937500, 51.562500, 32.812500
21, 13.999544, 51.362146, 30.418486
22, 14.062500, 51.562500, 32.812500
23, 5.883466, 43.723892, 36.805525
24, 7.986175, 43.317797, 36.287255
25, 7.487890, 45.142422, 35.772356
26, 4.874533, 45.645232, 36.161248
27, 5.851083, 43.637098, 38.190735
28, 7.932877, 43.215287, 38.984625
29, 7.330025, 45.007743, 39.477952
30, 4.765512, 45.525152, 38.879917
31, 8.729809, 43.484682, 34.164125
32, 10.919748, 43.233808, 34.083994
33, 10.765445, 43.022013, 36.273116
34, 10.937500, 45.312500, 35.937500
35, 13.542874, 43.131183, 34.072492
36, 13.558744, 42.934622, 36.250720
37, 14.062500, 45.312500, 35.937500
38, 10.751223, 42.990576, 39.154594
39, 10.937500, 45.312500, 39.062500
40, 13.615886, 42.959167, 39.103556
41, 14.062500, 45.312500, 39.062500
42, 5.468784, 46.204034, 33.695784
43, 7.812500, 48.437500, 35.937500
44, 4.442664, 48.246481, 35.719778
45, 3.058062, 49.341925, 34.151291
46, 3.062444, 50.753782, 34.148372
47, 2.743668, 48.744500, 36.150456
48, 4.453284, 51.821550, 35.729643
49, 2.751439, 51.355816, 36.169765
50, 7.812500, 51.562500, 35.937500
51, 2.981373, 46.690985, 36.711450
52, 2.921296, 46.624863, 38.128171
53, 4.272100, 48.174136, 39.384161
54, 2.653186, 48.707022, 38.781337
55, 7.812500, 48.437500, 39.062500
56, 4.282457, 51.871272, 39.387541
57, 2.661927, 51.365506, 38.789824
58, 7.812500, 51.562500, 39.062500
59, 10.937500, 48.437500, 35.937500
60, 14.062500, 48.437500, 35.937500
61, 10.937500, 51.562500, 35.937500
62, 14.062500, 51.562500, 35.937500
63, 10.937500, 48.437500, 39.062500
64, 14.062500, 48.437500, 39.062500
65, 10.937500, 51.562500, 39.062500
66, 14.062500, 51.562500, 39.062500
67, 16.078253, 46.434563, 30.906133
68, 16.837052, 48.659282, 30.732256
69, 16.767157, 45.415090, 33.067589
70, 17.308615, 48.173077, 32.603558
71, 16.832282, 51.276765, 30.741641
72, 17.309252, 51.761615, 32.610300
73, 18.740360, 49.243733, 31.157049
74, 18.737541, 50.669586, 31.167400
75, 19.426257, 48.613515, 32.998749
76, 19.430717, 51.302883, 33.007126
77, 15.600236, 43.248073, 34.151207
78, 15.754692, 43.035913, 36.217831
79, 17.170473, 45.106074, 35.918324
80, 15.839054, 43.078479, 38.984902
81, 17.311783, 45.096900, 39.039492
82, 17.187500, 48.437500, 35.937500
83, 19.183983, 46.311772, 33.650441
84, 19.778818, 46.180124, 36.065526
85, 20.489689, 48.693504, 36.218298
86, 17.187500, 51.562500, 35.937500
87, 20.490406, 51.265161, 36.216675
88, 17.187500, 48.437500, 39.062500
89, 20.414793, 46.151379, 39.265013
90, 20.798254, 48.202820, 38.940778
91, 17.187500, 51.562500, 39.062500
92, 20.797920, 51.764330, 38.949163
93, 22.606366, 49.395284, 37.359562
94, 22.593049, 50.575423, 37.334782
95, 23.607281, 48.707673, 40.021684
96, 23.643808, 51.274780, 40.023757
97, 8.453532, 43.311255, 42.114509
98, 10.917331, 43.218487, 42.170153
99, 10.998834, 45.188178, 42.050158
100, 7.671619, 45.165515, 42.110641
101, 13.822604, 43.274467, 42.019192
102, 14.015310, 45.221933, 42.057706
103, 4.924467, 46.172115, 42.434828
104, 7.734278, 48.596336, 42.034797
105, 4.589135, 48.426528, 42.061978
106, 2.859856, 49.267833, 41.328412
107, 4.613000, 51.592364, 42.080322
108, 2.866267, 50.798449, 41.323290
109, 7.733246, 51.401820, 42.035019
110, 5.215742, 47.561967, 43.153791
111, 4.455148, 47.788817, 44.002880
112, 4.395908, 46.842896, 43.724372
113, 5.212833, 46.547325, 43.310309
114, 5.614016, 47.954049, 44.580100
115, 4.610890, 47.862937, 44.342222
116, 4.603717, 46.887313, 44.203590
117, 5.567899, 46.211060, 44.175349
118, 3.777103, 48.521277, 43.178001
119, 5.326530, 49.115257, 44.581205
120, 4.323231, 49.092771, 44.289726
121, 4.149620, 46.949566, 43.411943
122, 10.997663, 48.579104, 42.068634
123, 14.006594, 48.584901, 42.070956
124, 10.997061, 51.420708, 42.069248
125, 14.007261, 51.414823, 42.070551
126, 8.357293, 46.118972, 44.088165
127, 7.243411, 46.090269, 43.046384
128, 8.643287, 44.854349, 42.981965
129, 8.384758, 45.901259, 44.945816
130, 6.913657, 46.004476, 44.636627
131, 7.199915, 44.756523, 43.832220
132, 8.621414, 44.548387, 44.520885
133, 10.320071, 46.173686, 44.076226
134, 9.983143, 44.901327, 42.952193
135, 10.252943, 46.048608, 44.544306
136, 10.117220, 44.443420, 44.573900
137, 11.573056, 46.151468, 42.931936
138, 11.759213, 46.018939, 44.524504
139, 11.572062, 44.464539, 44.447286
140, 8.421931, 47.590884, 44.084381
141, 7.206177, 47.570211, 43.019015
142, 8.485561, 47.725662, 44.539686
143, 6.802426, 47.612652, 44.772277
144, 10.313938, 47.580611, 44.079237
145, 10.250944, 47.709549, 44.541420
146, 11.577354, 47.604585, 42.938793
147, 11.754828, 47.722509, 44.525612
148, 8.735653, 48.832373, 42.844519
149, 8.587038, 49.222467, 44.530911
150, 7.028987, 49.221039, 44.529746
151, 10.004462, 48.876672, 42.855401
152, 10.162957, 49.222471, 44.530910
153, 11.721303, 49.221345, 44.529548
154, 5.570881, 45.525889, 43.737789
155, 9.002780, 43.377343, 43.112805
156, 8.816109, 43.495123, 43.943598
157, 8.034789, 43.561793, 43.490855
158, 9.987518, 43.271401, 43.118955
159, 10.052181, 43.369126, 43.951243
160, 11.444368, 43.280820, 43.666968
161, 15.932236, 43.350276, 41.634135
162, 17.215827, 45.255070, 42.189496
163, 17.297385, 48.582368, 42.064118
164, 20.268170, 45.853201, 42.282897
165, 20.243128, 48.343091, 42.260673
166, 17.299713, 51.419291, 42.066805
167, 20.241623, 51.658044, 42.262286
168, 14.660234, 46.167070, 44.085488
169, 13.429787, 46.164026, 42.939278
170, 14.997285, 44.939733, 43.006283
171, 14.720304, 46.040830, 44.548702
172, 13.232279, 46.004252, 44.522326
173, 13.385280, 44.487048, 44.432059
174, 14.830297, 44.463554, 44.576411
175, 16.562064, 46.179195, 44.090877
176, 16.285117, 45.046440, 43.109288
177, 16.498130, 46.067263, 44.546296
178, 16.298073, 44.642200, 44.519722
179, 17.775816, 46.092968, 42.980247
180, 18.004037, 45.984129, 44.512812
181, 18.013072, 45.027518, 44.564680
182, 14.681146, 47.584380, 44.083715
183, 13.425766, 47.607808, 42.945483
184, 14.745554, 47.716030, 44.540735
185, 13.243686, 47.725231, 44.525336
186, 16.557878, 47.619549, 44.057828
187, 16.523339, 47.727224, 44.542200
188, 17.773279, 47.679792, 42.963313
189, 18.026258, 47.777540, 44.515593
190, 15.004632, 48.854621, 42.869186
191, 14.836684, 49.222666, 44.530889
192, 13.278694, 49.221347, 44.529546
193, 16.278091, 48.791678, 42.869001
194, 16.414700, 49.223470, 44.530796
195, 17.972786, 49.223631, 44.527173
196, 14.865696, 43.404126, 42.995058
197, 14.714997, 43.466719, 43.875994
198, 13.335726, 43.315961, 43.601940
199, 15.674603, 43.631720, 42.891653
200, 15.625173, 43.636410, 43.832420
201, 19.559920, 46.400662, 42.994318
202, 19.646677, 46.305018, 44.877507
203, 20.259766, 45.642218, 45.159765
204, 19.500598, 47.586921, 43.019101
205, 19.619084, 47.593988, 44.949006
206, 20.421245, 48.464650, 45.138160
207, 22.592914, 46.657818, 40.308089
208, 22.922767, 46.504356, 42.618706
209, 23.682503, 48.053571, 42.081320
210, 24.663716, 47.616138, 41.949226
211, 25.430025, 48.445161, 41.464068
212, 24.969110, 49.279760, 41.113441
213, 25.949707, 49.043932, 42.883641
214, 25.901386, 48.042060, 42.741629
215, 25.887404, 48.513984, 41.811266
216, 26.042851, 49.414136, 41.788963
217, 24.722455, 48.459591, 40.426098
218, 24.816438, 48.551395, 40.437124
219, 24.548843, 49.359861, 40.278535
220, 23.714810, 51.942602, 42.082922
221, 23.228050, 46.048169, 45.577004
222, 23.348349, 48.490515, 45.170703
223, 23.352892, 51.505763, 45.174294
224, 20.420072, 51.535308, 45.137867
225, 20.265295, 45.674233, 48.626815
226, 23.410639, 45.733915, 48.642042
227, 23.355032, 48.477330, 48.592008
228, 20.410401, 48.445213, 48.603621
229, 17.963467, 46.041516, 46.053028
230, 17.872937, 45.059527, 46.165794
231, 18.422961, 45.930086, 46.188855
232, 18.904370, 45.204977, 46.285393
233, 17.956653, 47.777878, 46.028500
234, 18.406258, 47.839340, 46.163505
235, 17.975259, 49.259001, 46.017368
236, 19.519102, 49.064086, 46.129810
237, 17.963714, 46.042090, 47.696748
238, 17.899467, 45.157829, 47.614013
239, 18.427263, 45.933312, 47.558737
240, 18.905799, 45.246785, 47.491466
241, 17.957143, 47.765438, 47.716420
242, 18.413242, 47.832451, 47.583747
243, 17.975167, 49.258260, 47.732110
244, 19.518691, 49.058294, 47.622915
245, 17.971943, 46.061127, 49.229708
246, 18.178446, 45.294160, 49.086534
247, 19.654849, 46.360432, 48.890624
248, 17.969218, 47.665176, 49.223611
249, 19.611454, 47.537271, 48.817326
250, 17.970461, 49.221319, 49.221362
251, 25.333520, 47.842665, 46.168973
252, 25.097359, 46.048046, 46.184854
253, 24.227913, 46.535720, 45.409557
254, 24.279623, 47.539944, 44.987940
255, 25.799914, 47.774753, 46.046624
256, 26.131961, 46.346268, 46.074793
257, 25.856240, 46.575328, 44.705647
258, 25.956590, 47.760703, 44.408427
259, 24.218297, 49.070652, 46.132369
260, 25.774963, 49.258811, 46.019221
261, 25.779430, 49.221490, 44.528472
262, 25.335887, 47.827314, 47.593820
263, 25.211711, 45.949580, 47.481662
264, 25.791187, 47.764481, 47.724006
265, 25.985261, 46.009745, 47.675207
266, 24.223542, 49.060494, 47.624993
267, 25.775150, 49.257638, 47.728604
268, 24.030567, 46.379092, 48.830150
269, 24.622979, 45.428408, 47.622702
270, 25.832928, 45.975731, 48.997716
271, 25.352746, 45.358506, 49.186501
272, 25.377047, 45.345890, 48.038578
273, 24.137917, 47.528097, 48.814905
274, 25.780845, 47.664035, 49.223053
275, 25.779545, 49.221310, 49.221350
276, 24.373696, 45.487215, 46.285415
277, 24.544034, 46.423048, 43.106692
278, 25.711622, 46.708767, 43.304834
279, 23.357541, 51.504538, 48.587275
280, 20.409262, 51.557294, 48.604455
281, 20.263347, 45.683930, 51.367077
282, 23.401163, 45.774216, 51.344161
283, 23.355026, 48.479575, 51.409142
284, 20.410443, 48.444820, 51.396038
285, 23.358007, 51.502765, 51.413627
286, 20.409462, 51.557246, 51.395418
287, 81.236209, 49.294011, 31.170064
288, 83.120522, 48.697337, 30.742443
289, 83.127676, 51.309224, 30.741883
290, 81.235729, 50.725318, 31.170073
291, 80.613801, 48.633876, 33.039436
292, 82.662738, 48.211924, 32.609632
293, 82.653216, 51.799271, 32.604295
294, 80.595575, 51.366206, 33.035176
295, 83.836488, 46.464642, 30.893420
296, 86.097088, 46.371640, 30.653355
297, 85.954712, 48.624367, 30.418396
298, 83.108308, 45.400419, 33.030052
299, 86.002326, 45.203263, 32.802964
300, 85.937500, 48.437500, 32.812500
301, 88.887287, 46.415240, 30.672778
302, 89.023491, 48.630936, 30.436144
303, 89.035816, 45.253008, 32.806812
304, 89.062500, 48.437500, 32.812500
305, 85.949259, 51.379026, 30.419734
306, 85.937500, 51.562500, 32.812500
307, 89.015483, 51.361561, 30.436349
308, 89.062500, 51.562500, 32.812500
309, 84.055900, 43.141102, 34.114314
310, 86.192183, 43.038948, 34.030576
311, 83.468682, 42.655933, 36.187549
312, 85.865676, 42.706539, 36.250059
313, 85.970332, 45.157687, 35.812887
314, 82.672963, 45.029622, 35.800798
315, 88.977663, 43.098198, 34.025479
316, 89.269356, 42.661634, 36.243084
317, 89.014431, 45.150806, 35.806537
318, 80.756484, 46.261544, 33.641767
319, 80.002670, 45.883270, 36.007615
320, 82.716370, 48.657953, 35.788023
321, 79.838170, 48.458906, 36.320244
322, 82.714215, 51.335825, 35.790346
323, 79.828900, 51.531316, 36.332321
324, 77.515915, 49.476786, 37.309381
325, 77.497531, 50.482294, 37.331417
326, 76.343181, 48.682403, 39.952845
327, 79.437331, 48.209487, 38.723023
328, 79.427434, 51.792712, 38.738224
329, 76.318854, 51.262873, 40.024118
330, 85.999559, 48.581168, 35.806053
331, 89.001544, 48.578551, 35.816353
332, 85.999037, 51.419115, 35.805912
333, 89.002562, 51.421118, 35.816967
334, 83.411905, 46.146230, 37.835400
335, 82.204898, 46.026004, 36.776776
336, 83.610503, 44.910157, 36.643725
337, 83.474445, 46.031612, 38.296388
338, 81.987105, 45.967840, 38.262702
339, 81.898568, 44.401210, 38.363414
340, 83.576530, 44.529960, 38.272504
341, 85.323532, 46.176318, 37.831153
342, 85.078227, 44.924254, 36.606700
343, 85.259681, 46.040774, 38.292846
344, 85.165179, 44.526387, 38.280772
345, 86.572193, 46.138198, 36.700460
346, 86.757734, 46.020151, 38.274964
347, 86.721529, 44.528556, 38.279373
348, 83.429586, 47.595916, 37.801137
349, 82.260057, 47.727579, 36.756782
350, 83.501864, 47.719730, 38.289256
351, 81.974434, 47.801738, 38.261021
352, 85.312567, 47.582538, 37.825836
353, 85.249370, 47.709803, 38.290991
354, 86.576951, 47.603013, 36.693482
355, 86.755627, 47.724346, 38.275385
356, 83.735997, 48.827076, 36.595800
357, 83.585997, 49.223062, 38.280841
358, 82.028289, 49.222127, 38.278639
359, 85.000644, 48.870718, 36.601849
360, 85.162958, 49.222470, 38.280910
361, 86.721303, 49.221346, 38.279548
362, 80.571423, 46.368981, 36.759650
363, 80.363760, 46.253465, 38.706121
364, 79.786761, 45.584066, 39.078531
365, 80.543832, 47.624022, 36.916326
366, 80.258575, 47.485636, 38.702526
367, 83.849291, 43.144053, 36.691484
368, 83.093547, 42.449646, 38.820845
369, 83.673165, 42.998283, 38.749604
370, 85.195634, 43.246255, 36.772526
371, 85.171692, 43.125020, 38.862970
372, 86.071097, 42.371196, 38.915660
373, 91.133732, 46.543862, 30.910799
374, 91.898045, 48.697544, 30.765906
375, 91.958415, 45.489645, 32.995680
376, 92.434170, 48.219310, 32.605987
377, 91.902251, 51.261032, 30.755256
378, 92.432553, 51.755724, 32.613462
379, 93.966616, 49.327258, 31.185395
380, 93.967098, 50.643297, 31.186004
381, 95.041432, 48.764341, 33.107191
382, 95.042399, 51.240170, 33.127539
383, 91.174627, 43.304735, 34.092218
384, 91.926736, 42.710239, 36.220246
385, 92.364743, 45.027346, 35.749414
386, 92.242686, 48.605389, 35.755227
387, 94.489724, 46.221554, 33.605421
388, 95.252898, 45.613425, 36.127493
389, 95.244391, 48.439538, 35.877386
390, 92.242135, 51.399448, 35.764342
391, 95.239684, 51.579166, 35.763377
392, 89.676727, 46.175171, 37.832695
393, 88.426107, 46.135998, 36.700836
394, 89.913918, 44.912458, 36.596843
395, 89.737650, 46.038784, 38.292543
396, 88.241809, 46.019663, 38.274922
397, 88.277382, 44.527636, 38.278146
398, 89.835877, 44.526969, 38.280840
399, 91.588349, 46.157403, 37.849214
400, 91.402866, 44.899310, 36.618416
401, 91.528434, 46.034369, 38.295807
402, 91.406250, 44.531250, 38.281250
403, 92.804979, 46.083167, 36.768411
404, 93.011366, 46.015908, 38.276087
405, 92.942623, 44.537854, 38.271735
406, 89.689002, 47.582613, 37.821788
407, 88.419891, 47.603843, 36.696245
408, 89.752798, 47.709142, 38.290875
409, 88.245706, 47.722017, 38.275698
410, 91.563485, 47.594522, 37.804106
411, 91.499638, 47.718351, 38.289389
412, 92.832302, 47.596808, 36.720018
413, 93.005902, 47.726885, 38.275097
414, 90.000152, 48.876522, 36.593403
415, 89.837039, 49.222469, 38.280910
416, 88.278695, 49.221347, 38.279548
417, 91.250522, 48.832918, 36.570614
418, 91.414406, 49.223241, 38.280821
419, 92.971316, 49.221359, 38.279544
420, 89.890018, 43.231465, 36.785745
421, 89.039737, 42.369728, 38.898606
422, 89.845995, 43.047343, 38.827987
423, 91.366410, 43.241820, 36.761340
424, 91.403574, 43.082290, 38.720938
425, 92.213982, 42.446077, 38.843436
426, 97.065468, 49.409110, 34.073661
427, 97.065549, 50.629052, 34.087508
428, 97.910067, 48.771835, 36.076025
429, 97.909393, 51.252616, 36.070854
430, 95.984705, 46.218376, 37.841670
431, 94.739450, 46.205598, 36.743594
432, 96.196136, 45.574227, 37.183846
433, 96.062669, 46.075888, 38.285144
434, 94.489727, 45.993074, 38.269722
435, 94.398980, 44.716460, 38.321462
436, 95.926585, 45.092006, 38.531800
437, 97.531449, 46.548192, 37.627367
438, 97.274837, 46.144001, 36.978829
439, 97.449642, 46.231148, 38.537541
440, 97.316785, 45.424661, 38.400598
441, 95.888153, 47.666226, 37.919633
442, 94.746493, 47.587230, 36.739801
443, 95.891427, 47.788567, 38.280817
444, 94.458206, 47.794484, 38.262007
445, 97.778524, 47.625782, 37.789207
446, 97.852226, 47.701591, 38.459404
447, 96.183368, 48.643797, 36.742023
448, 96.066306, 49.232001, 38.279175
449, 94.522231, 49.228202, 38.274997
450, 97.367976, 48.763608, 36.606611
451, 97.687480, 49.224647, 38.278608
452, 98.359587, 47.704994, 37.212992
453, 98.532394, 49.211101, 37.813676
454, 98.579619, 48.086575, 38.145022
455, 97.611043, 46.358540, 36.406404
456, 98.132088, 46.655607, 37.011476
457, 94.631164, 43.564146, 36.847402
458, 95.695565, 43.926682, 37.475334
459, 94.368996, 43.355296, 38.560586
460, 95.551839, 43.774144, 38.594261
461, 83.486097, 44.546604, 39.749091
462, 81.838849, 44.259110, 39.755162
463, 83.379492, 44.156749, 39.868359
464, 82.170670, 43.459994, 40.040035
465, 85.319227, 44.547362, 39.727572
466, 85.365127, 44.154714, 39.828985
467, 86.761326, 44.527410, 39.751696
468, 86.507878, 43.183164, 39.773061
469, 83.567965, 44.529673, 41.437173
470, 81.945322, 44.339117, 41.443909
471, 83.471419, 44.117375, 41.253033
472, 82.332236, 43.567241, 40.946584
473, 85.253637, 44.550206, 41.435106
474, 85.337371, 44.119424, 41.308526
475, 86.761896, 44.515299, 41.535118
476, 86.500501, 43.144855, 41.284711
477, 83.363368, 44.426988, 42.787303
478, 82.003561, 44.409325, 42.648120
479, 83.958612, 43.426917, 41.947182
480, 83.333843, 42.738065, 41.472728
481, 85.224740, 44.554949, 42.928661
482, 85.095869, 43.374079, 42.132770
483, 86.754478, 44.551200, 42.907488
484, 85.947703, 42.513618, 41.831793
485, 85.145088, 44.410085, 44.512355
486, 83.661159, 44.498792, 44.430348
487, 85.177747, 43.391098, 43.597601
488, 84.295077, 43.454884, 43.533043
489, 86.705990, 44.385970, 44.487352
490, 86.517019, 43.034861, 43.698700
491, 80.900320, 44.513444, 40.090901
492, 80.971747, 44.514636, 41.128118
493, 81.220152, 43.578330, 40.422549
494, 81.299654, 43.638645, 40.718167
495, 77.427568, 46.354092, 40.243373
496, 77.176283, 46.370640, 42.535449
497, 79.764119, 45.532275, 42.394548
498, 79.504027, 48.420613, 42.364649
499, 76.320660, 48.015878, 41.942600
500, 74.230307, 48.451727, 41.597838
501, 74.155419, 49.400944, 41.457787
502, 74.062879, 49.005518, 42.792838
503, 74.095073, 48.013374, 42.648052
504, 74.672376, 48.389036, 41.306809
505, 74.974171, 49.198626, 41.039312
506, 75.415719, 47.585848, 41.818426
507, 75.237998, 48.538898, 40.311533
508, 75.297974, 49.393035, 40.289151
509, 75.404137, 48.414364, 40.275695
510, 81.597423, 45.901899, 39.921790
511, 82.038409, 46.044196, 39.795823
512, 81.558473, 47.860869, 39.915037
513, 82.044350, 47.786374, 39.772609
514, 80.533992, 49.017524, 39.843143
515, 82.021228, 49.270780, 39.731276
516, 81.583391, 45.909674, 41.323781
517, 82.036098, 46.066619, 41.432037
518, 81.582219, 47.829295, 41.319096
519, 82.044742, 47.756910, 41.451861
520, 80.487381, 49.070919, 41.346645
521, 82.023755, 49.260145, 41.486674
522, 80.373423, 46.280335, 42.661939
523, 82.029661, 46.071532, 42.978841
524, 80.367260, 47.526908, 42.606714
525, 82.030756, 47.665517, 42.973808
526, 82.029540, 49.221319, 42.971363
527, 79.503528, 51.580399, 42.365974
528, 76.295094, 51.924475, 42.004302
529, 76.813576, 46.050336, 45.560960
530, 79.757295, 45.628308, 45.169757
531, 79.584315, 48.444163, 45.148965
532, 76.650663, 48.492898, 45.175579
533, 79.585651, 51.556328, 45.148853
534, 76.649574, 51.507019, 45.173656
535, 76.655500, 45.779151, 48.632972
536, 79.757930, 45.683720, 48.630329
537, 79.592919, 48.444079, 48.602493
538, 76.639916, 48.491396, 48.585481
539, 74.192704, 46.524260, 44.709741
540, 74.023321, 47.743909, 44.398599
541, 74.200753, 47.769414, 46.049828
542, 73.891827, 46.331085, 46.108829
543, 75.777548, 46.543887, 45.400340
544, 75.727320, 47.528061, 44.972761
545, 74.666870, 47.834090, 46.171286
546, 74.902748, 46.060373, 46.184653
547, 74.220570, 49.221489, 44.528472
548, 74.225024, 49.258669, 46.018986
549, 75.785337, 49.066137, 46.129481
550, 74.209586, 47.756114, 47.720193
551, 74.063950, 46.001286, 47.735788
552, 74.665997, 47.820587, 47.592024
553, 74.797656, 45.968642, 47.509279
554, 74.224209, 49.254670, 47.722791
555, 75.779655, 49.065561, 47.622206
556, 74.798601, 45.348760, 48.075219
557, 74.266802, 46.056173, 49.169778
558, 75.162614, 45.401704, 49.160930
559, 75.450834, 45.452559, 47.639600
560, 75.996736, 46.435163, 48.841045
561, 74.219111, 47.663317, 49.222665
562, 75.876213, 47.521743, 48.835934
563, 74.220454, 49.221307, 49.221347
564, 75.674448, 45.487226, 46.298450
565, 74.332170, 46.604511, 43.247236
566, 75.507043, 46.355707, 43.017712
567, 81.578184, 45.932281, 46.188202
568, 81.110923, 45.186878, 46.300821
569, 80.372540, 46.328110, 44.863632
570, 82.036517, 46.046446, 46.056350
571, 82.114270, 45.025480, 46.200455
572, 81.875827, 44.905489, 44.670669
573, 82.027255, 46.054672, 44.516348
574, 81.586208, 47.833030, 46.167857
575, 80.389701, 47.543834, 44.929895
576, 82.043138, 47.766585, 46.034086
577, 82.030760, 47.665514, 44.526192
578, 80.478881, 49.057048, 46.128052
579, 82.024592, 49.259113, 46.016200
580, 82.029540, 49.221318, 44.528639
581, 81.573353, 45.929211, 47.560922
582, 81.114845, 45.248952, 47.505319
583, 82.036295, 46.047779, 47.693546
584, 82.108143, 45.160047, 47.628493
585, 81.586729, 47.832731, 47.582546
586, 82.043608, 47.766151, 47.714265
587, 80.482336, 49.058873, 47.622482
588, 82.024855, 49.258111, 47.731751
589, 80.355283, 46.353004, 48.893846
590, 82.028173, 46.062419, 49.229429
591, 81.819970, 45.306902, 49.093016
592, 80.396672, 47.545102, 48.822251
593, 82.030759, 47.665529, 49.223807
594, 82.029539, 49.221320, 49.221362
595, 79.593083, 51.555334, 48.601990
596, 76.638798, 51.504065, 48.585821
597, 76.660702, 45.766090, 51.368490
598, 79.751709, 45.685459, 51.369331
599, 79.593066, 48.442099, 51.395184
600, 76.639734, 48.492768, 51.412390
601, 79.592032, 51.557642, 51.395430
602, 76.638522, 51.503074, 51.415440
603, 89.706968, 44.548155, 39.749528
604, 88.245704, 44.527761, 39.755739
605, 89.632084, 44.126905, 39.868085
606, 88.514743, 43.197991, 39.773411
607, 91.516433, 44.553276, 39.752667
608, 91.620747, 44.176568, 39.856586
609, 92.968750, 44.531250, 39.843750
610, 93.020749, 43.370393, 40.057781
611, 89.692637, 44.552564, 41.463692
612, 88.229835, 44.508005, 41.563651
613, 89.620772, 44.115207, 41.322059
614, 88.509021, 43.166008, 41.262605
615, 91.413197, 44.531884, 41.414221
616, 91.563550, 44.114141, 41.305707
617, 93.177433, 44.312237, 41.568638
618, 92.984064, 43.452874, 41.223993
619, 89.750177, 44.552552, 42.922519
620, 88.240447, 44.555375, 42.888854
621, 89.900894, 43.235051, 42.190970
622, 89.193232, 42.451699, 41.867145
623, 91.406250, 44.531250, 42.968750
624, 91.153299, 43.363698, 42.105741
625, 92.995789, 44.391824, 42.765630
626, 91.894189, 42.816611, 41.813542
627, 89.844958, 44.415121, 44.549795
628, 88.300524, 44.377307, 44.520562
629, 89.839424, 43.293504, 43.697865
630, 88.501275, 43.004972, 43.729232
631, 91.302159, 44.564088, 44.415341
632, 91.246084, 43.553200, 43.593323
633, 92.667248, 44.589672, 44.195428
634, 91.901785, 43.439239, 43.529771
635, 96.046646, 44.768998, 39.833084
636, 94.531250, 44.531250, 39.843750
637, 95.519820, 43.802548, 39.821262
638, 94.499956, 43.510577, 39.890865
639, 95.668045, 44.733795, 41.289561
640, 94.588460, 44.503005, 41.460370
641, 95.398590, 43.856767, 40.770075
642, 94.512565, 43.617849, 40.934146
643, 11.056027, 53.553348, 30.687409
644, 8.795512, 53.428962, 30.931328
645, 10.914675, 54.682042, 32.840768
646, 7.979648, 54.460258, 33.046562
647, 13.842109, 53.592497, 30.674661
648, 13.926502, 54.730330, 32.837281
649, 5.501703, 53.812419, 33.692147
650, 7.507086, 54.850379, 35.773858
651, 4.906001, 54.371868, 36.143749
652, 3.000860, 53.373432, 36.721786
653, 4.777118, 54.451952, 38.873871
654, 2.946419, 53.424519, 38.145792
655, 7.345802, 54.992263, 39.469688
656, 8.007022, 56.647071, 36.289990
657, 5.914909, 56.261216, 36.801168
658, 7.927499, 56.724067, 38.985349
659, 5.836302, 56.335427, 38.191518
660, 10.937500, 54.687500, 35.937500
661, 14.062500, 54.687500, 35.937500
662, 10.948452, 56.727561, 34.063993
663, 8.760293, 56.485182, 34.150187
664, 10.779155, 56.943680, 36.265185
665, 13.597779, 56.819810, 34.053951
666, 13.599807, 57.025493, 36.241880
667, 10.937500, 54.687500, 39.062500
668, 14.062500, 54.687500, 39.062500
669, 10.761666, 56.973022, 39.147837
670, 13.644218, 57.007925, 39.099380
671, 16.095098, 53.500634, 30.906650
672, 16.807544, 54.528109, 33.068612
673, 17.190699, 54.863930, 35.941608
674, 19.209049, 53.611679, 33.659052
675, 19.808036, 53.766451, 36.079311
676, 15.634402, 56.699401, 34.146652
677, 15.788075, 56.917817, 36.220922
678, 17.335643, 54.879020, 39.056532
679, 20.436579, 53.792485, 39.278904
680, 15.868126, 56.885774, 38.984294
681, 7.680056, 54.825666, 42.122350
682, 4.946440, 53.830980, 42.466138
683, 5.224477, 52.429529, 43.146795
684, 4.443553, 52.185844, 43.992879
685, 3.785926, 51.487078, 43.211334
686, 5.636833, 52.038720, 44.584886
687, 4.621218, 52.112629, 44.352752
688, 4.329527, 50.898510, 44.298735
689, 5.340871, 50.889978, 44.590467
690, 5.230114, 53.452211, 43.316179
691, 4.415941, 53.120330, 43.735372
692, 5.597819, 53.779838, 44.195238
693, 4.623087, 53.078346, 44.221558
694, 4.170019, 53.042470, 43.430408
695, 2.848096, 50.556888, 42.471317
696, 2.842188, 49.487039, 42.460262
697, 10.998647, 54.810882, 42.049096
698, 14.014645, 54.769124, 42.052563
699, 10.899405, 56.733138, 42.150046
700, 8.449270, 56.622580, 42.111050
701, 13.807200, 56.711064, 41.988657
702, 8.424174, 52.407268, 44.080274
703, 7.208879, 52.431249, 43.022207
704, 8.735192, 51.169373, 42.844673
705, 8.487250, 52.276750, 44.540033
706, 6.815796, 52.387841, 44.774479
707, 7.028987, 50.778961, 44.529746
708, 8.587038, 50.777534, 44.530911
709, 10.313978, 52.418787, 44.078953
710, 10.005363, 51.124538, 42.855325
711, 10.250912, 52.290448, 44.541414
712, 10.162957, 50.777529, 44.530910
713, 11.577127, 52.394938, 42.939654
714, 11.754840, 52.277504, 44.525610
715, 11.721303, 50.778655, 44.529548
716, 8.362445, 53.872741, 44.084385
717, 7.256165, 53.903908, 43.053994
718, 8.400835, 54.081914, 44.950315
719, 6.932964, 53.989445, 44.642661
720, 10.319663, 53.826315, 44.076418
721, 10.252959, 53.951437, 44.544192
722, 11.572979, 53.846785, 42.931166
723, 11.759095, 53.980586, 44.524469
724, 8.651877, 55.136218, 42.988779
725, 8.626352, 55.430913, 44.540780
726, 7.231180, 55.235095, 43.862912
727, 9.982041, 55.097481, 42.953957
728, 10.124198, 55.518251, 44.594878
729, 11.568813, 55.496748, 44.466280
730, 5.609174, 54.460453, 43.760130
731, 9.014803, 56.595010, 43.104488
732, 8.816195, 56.482339, 43.957575
733, 8.046263, 56.410317, 43.501629
734, 9.982262, 56.702128, 43.109302
735, 10.051002, 56.606156, 43.964622
736, 11.437220, 56.693122, 43.671557
737, 17.216836, 54.730971, 42.196196
738, 20.270329, 54.132532, 42.285822
739, 15.931098, 56.627313, 41.611602
740, 14.681229, 52.416268, 44.083752
741, 13.425856, 52.392398, 42.944123
742, 15.003619, 51.145006, 42.870106
743, 14.745543, 52.284034, 44.540739
744, 13.243667, 52.274826, 44.525336
745, 13.278694, 50.778653, 44.529546
746, 14.836685, 50.777334, 44.530889
747, 16.557972, 52.379588, 44.058356
748, 16.278932, 51.210323, 42.870617
749, 16.523357, 52.272704, 44.542214
750, 16.414701, 50.776531, 44.530796
751, 17.770204, 52.318099, 42.962555
752, 18.026541, 52.221830, 44.515583
753, 17.972788, 50.776367, 44.527172
754, 14.661487, 53.832125, 44.084876
755, 13.429968, 53.831695, 42.935108
756, 14.720345, 53.959182, 44.548570
757, 13.231359, 53.997300, 44.521979
758, 16.563400, 53.821901, 44.091642
759, 16.499934, 53.933729, 44.546361
760, 17.777206, 53.898729, 42.981320
761, 18.002315, 54.012982, 44.513512
762, 14.999630, 55.057898, 43.003575
763, 14.830087, 55.521276, 44.575987
764, 13.379142, 55.492325, 44.431952
765, 16.295435, 54.946722, 43.105221
766, 16.302799, 55.338898, 44.516493
767, 18.020471, 54.964208, 44.564323
768, 19.502583, 52.411586, 43.018703
769, 19.616620, 52.406680, 44.951891
770, 19.561955, 53.590251, 42.994964
771, 19.647754, 53.688846, 44.878028
772, 20.254996, 54.341049, 45.154719
773, 22.586051, 53.319045, 40.288917
774, 22.928613, 53.465622, 42.621243
775, 24.692282, 52.389472, 41.950510
776, 24.999978, 50.711915, 41.122168
777, 25.455129, 51.549742, 41.455333
778, 25.959415, 51.972458, 42.749936
779, 26.009714, 50.953882, 42.871195
780, 26.068114, 50.604506, 41.776342
781, 25.928328, 51.490790, 41.808099
782, 24.736915, 51.531502, 40.417587
783, 24.560052, 50.647902, 40.280319
784, 24.827780, 51.436767, 40.428837
785, 23.182827, 53.930128, 45.581805
786, 14.858107, 56.579895, 42.978711
787, 14.702379, 56.519067, 43.848915
788, 13.326225, 56.663686, 43.591158
789, 15.697487, 56.357166, 42.896784
790, 15.624474, 56.352166, 43.825870
791, 23.325451, 54.213353, 48.632680
792, 20.249478, 54.306140, 48.628352
793, 17.956630, 52.221161, 46.027722
794, 17.975296, 50.740790, 46.017006
795, 18.406416, 52.160061, 46.162969
796, 19.518190, 50.936768, 46.128866
797, 17.963562, 53.958441, 46.053025
798, 18.423800, 54.069200, 46.189571
799, 17.870486, 54.929969, 46.161807
800, 18.898010, 54.781500, 46.283197
801, 17.956734, 52.232201, 47.716796
802, 17.975316, 50.741018, 47.733572
803, 18.412558, 52.165988, 47.584449
804, 19.517551, 50.943333, 47.623846
805, 17.963833, 53.955891, 47.695271
806, 18.427750, 54.065915, 47.558543
807, 17.894803, 54.831118, 47.609070
808, 18.893287, 54.739551, 47.491682
809, 17.969241, 52.334471, 49.223807
810, 17.970461, 50.778680, 49.221362
811, 19.605470, 52.461148, 48.812850
812, 17.972038, 53.938921, 49.229574
813, 19.650477, 53.635656, 48.889876
814, 18.171245, 54.693175, 49.083963
815, 25.335411, 52.164568, 46.170888
816, 24.216922, 50.932564, 46.128768
817, 24.285841, 52.462207, 44.987019
818, 25.799619, 52.229250, 46.050234
819, 25.775092, 50.741609, 46.019680
820, 25.779430, 50.778511, 44.528472
821, 25.976189, 52.256605, 44.422845
822, 25.064370, 53.950544, 46.187928
823, 24.218011, 53.466580, 45.422871
824, 26.084533, 53.678788, 46.109190
825, 25.811890, 53.495515, 44.741040
826, 25.333880, 52.180628, 47.593828
827, 24.221835, 50.931216, 47.619995
828, 25.789946, 52.244322, 47.721589
829, 25.775985, 50.746169, 47.720978
830, 25.168325, 54.038940, 47.519061
831, 25.883369, 54.017877, 47.740933
832, 24.118500, 52.483782, 48.835420
833, 25.780889, 52.336682, 49.222665
834, 25.779546, 50.778693, 49.221347
835, 23.992080, 53.557910, 48.834421
836, 25.711686, 53.961061, 49.166460
837, 24.480453, 54.561451, 47.656192
838, 24.800466, 54.591295, 49.147424
839, 25.140652, 54.660652, 48.074219
840, 24.282372, 54.522533, 46.319046
841, 24.537618, 53.585636, 43.115375
842, 25.701087, 53.355705, 43.341729
843, 23.317952, 54.204976, 51.362451
844, 20.250136, 54.307076, 51.364621
845, 86.087807, 53.616831, 30.666316
846, 83.834463, 53.522191, 30.902266
847, 85.989499, 54.773073, 32.819197
848, 83.091351, 54.563810, 33.045034
849, 88.874783, 53.585918, 30.684578
850, 89.022889, 54.744607, 32.823396
851, 80.713254, 53.728831, 33.638347
852, 82.674461, 54.957559, 35.799838
853, 79.985315, 54.107823, 36.009079
854, 85.971224, 54.841182, 35.812650
855, 89.022780, 54.850153, 35.813540
856, 86.174930, 56.923141, 34.041064
857, 84.039776, 56.823909, 34.113577
858, 85.859587, 57.288992, 36.235893
859, 83.460893, 57.342949, 36.178673
860, 88.949837, 56.884204, 34.037651
861, 89.250519, 57.341055, 36.227418
862, 83.430444, 52.403419, 37.800766
863, 82.262071, 52.269381, 36.759718
864, 83.736603, 51.172276, 36.596050
865, 83.501934, 52.280213, 38.289253
866, 81.975121, 52.199176, 38.261022
867, 82.028112, 50.777562, 38.278312
868, 83.585996, 50.776938, 38.280841
869, 85.312432, 52.417540, 37.825837
870, 85.000588, 51.128990, 36.601225
871, 85.249370, 52.290190, 38.290989
872, 85.162958, 50.777530, 38.280910
873, 86.577103, 52.396582, 36.694185
874, 86.755436, 52.275989, 38.275430
875, 86.721303, 50.778654, 38.279548
876, 83.412478, 53.852753, 37.835322
877, 82.203177, 53.971166, 36.769430
878, 83.473320, 53.968960, 38.296274
879, 81.985872, 54.036567, 38.261862
880, 85.323376, 53.823481, 37.831519
881, 85.260599, 53.959951, 38.292763
882, 86.571967, 53.861684, 36.700640
883, 86.757909, 53.980204, 38.274911
884, 83.613204, 55.087265, 36.645201
885, 83.573721, 55.470371, 38.271531
886, 81.910645, 55.581519, 38.376688
887, 85.077725, 55.075976, 36.606445
888, 85.165177, 55.473613, 38.280772
889, 86.721543, 55.471456, 38.279355
890, 80.536895, 52.376503, 36.926450
891, 80.260317, 52.518595, 38.709639
892, 80.562344, 53.619762, 36.766330
893, 80.362218, 53.735363, 38.713746
894, 79.779743, 54.405866, 39.098282
895, 83.849105, 56.849841, 36.688693
896, 83.680702, 56.999925, 38.755547
897, 83.094844, 57.556438, 38.843252
898, 85.188795, 56.749265, 36.765577
899, 85.165905, 56.876924, 38.856364
900, 86.065503, 57.629194, 38.912816
901, 91.134506, 53.454294, 30.920381
902, 91.954521, 54.515010, 33.027702
903, 92.335977, 54.922100, 35.786289
904, 94.526321, 53.821778, 33.648184
905, 95.373603, 54.440556, 36.112987
906, 91.147272, 56.702310, 34.107342
907, 91.902050, 57.309422, 36.210112
908, 89.687978, 52.416849, 37.823089
909, 88.421266, 52.395545, 36.696908
910, 89.997872, 51.125086, 36.595666
911, 89.752477, 52.291766, 38.291189
912, 88.245523, 52.277596, 38.275655
913, 88.278695, 50.778653, 38.279547
914, 89.837039, 50.777531, 38.280910
915, 91.562254, 52.404494, 37.803854
916, 91.247482, 51.165645, 36.576448
917, 91.500513, 52.280824, 38.289316
918, 91.414039, 50.776950, 38.280844
919, 92.835642, 52.404085, 36.714316
920, 93.005696, 52.274002, 38.275207
921, 92.971313, 50.778645, 38.279545
922, 89.676021, 53.824034, 37.832399
923, 88.429041, 53.866877, 36.703242
924, 89.739879, 53.960853, 38.292344
925, 88.242265, 53.979797, 38.275030
926, 91.587810, 53.840813, 37.849135
927, 91.528792, 53.965580, 38.295855
928, 92.814241, 53.905380, 36.751351
929, 93.011953, 53.984844, 38.275953
930, 89.912948, 55.083862, 36.597216
931, 89.835878, 55.473031, 38.280841
932, 88.277478, 55.472292, 38.278220
933, 91.398205, 55.098816, 36.625591
934, 91.406250, 55.468750, 38.281250
935, 92.939724, 55.461715, 38.270164
936, 89.880782, 56.772122, 36.777524
937, 89.838663, 56.957157, 38.835859
938, 89.019844, 57.646694, 38.896096
939, 91.358143, 56.775657, 36.752244
940, 91.428337, 56.930636, 38.709218
941, 92.220005, 57.560975, 38.850907
942, 95.884983, 52.310550, 37.972338
943, 94.762133, 52.453602, 36.734013
944, 96.216349, 51.386340, 36.744314
945, 95.868295, 52.200165, 38.272285
946, 94.437383, 52.178264, 38.252486
947, 94.521756, 50.771384, 38.274562
948, 96.066716, 50.768197, 38.279228
949, 97.790089, 52.421581, 37.895521
950, 97.365053, 51.255636, 36.610096
951, 97.845090, 52.307713, 38.481485
952, 97.688132, 50.775088, 38.278346
953, 98.336207, 52.367300, 37.298650
954, 98.547200, 51.967001, 38.194590
955, 98.509166, 50.834759, 37.851020
956, 95.993101, 53.714375, 37.811014
957, 94.739965, 53.812247, 36.768401
958, 96.071039, 53.934751, 38.280821
959, 94.497776, 54.001550, 38.271869
960, 97.551246, 53.439826, 37.627633
961, 97.453580, 53.813669, 38.567128
962, 96.203143, 54.186973, 37.263911
963, 96.179763, 55.132906, 38.493848
964, 94.912212, 55.281758, 38.140228
965, 97.249605, 53.761250, 37.041260
966, 97.240169, 54.551965, 38.428857
967, 97.490355, 53.527511, 36.559705
968, 98.066448, 53.321584, 37.114215
969, 77.371368, 53.591880, 40.311037
970, 79.770486, 54.440535, 42.413882
971, 77.132492, 53.579999, 42.608041
972, 74.160998, 50.552202, 41.514885
973, 74.190488, 51.551020, 41.708787
974, 74.082345, 51.969084, 42.748315
975, 74.098350, 50.960787, 42.905166
976, 74.912209, 50.779703, 41.154650
977, 74.558545, 51.627636, 41.456419
978, 75.312959, 52.388874, 41.889431
979, 75.286626, 50.614103, 40.300611
980, 75.103822, 51.482322, 40.449087
981, 75.204922, 51.573123, 40.436597
982, 74.467115, 49.664769, 40.633582
983, 74.438727, 50.323370, 40.686220
984, 81.557489, 52.138132, 39.915034
985, 80.530231, 50.983354, 39.850078
986, 82.044197, 52.211604, 39.771140
987, 82.020339, 50.727410, 39.727566
988, 81.597773, 54.095168, 39.923151
989, 82.038125, 53.958255, 39.794122
990, 80.917221, 55.463478, 40.125344
991, 81.858473, 55.722102, 39.784686
992, 81.582503, 52.170232, 41.319021
993, 80.487211, 50.928547, 41.346404
994, 82.044818, 52.242985, 41.451843
995, 82.023756, 50.739789, 41.486632
996, 81.581539, 54.091435, 41.324440
997, 82.035514, 53.929301, 41.428625
998, 80.998591, 55.456751, 41.142781
999, 81.970966, 55.642844, 41.454113
1000, 80.372135, 52.474176, 42.606397
1001, 82.030756, 52.334470, 42.973807
1002, 82.029539, 50.778680, 42.971364
1003, 80.369867, 53.715047, 42.668968
1004, 82.029651, 53.928616, 42.978605
1005, 82.013514, 55.571027, 42.659081
1006, 81.322415, 56.320224, 40.773199
1007, 81.269952, 56.388791, 40.458570
1008, 82.355477, 56.408885, 40.976855
1009, 82.197909, 56.525549, 40.067954
1010, 79.757663, 54.365017, 45.175361
1011, 76.829835, 53.929955, 45.574296
1012, 83.386175, 55.849717, 39.871474
1013, 83.490074, 55.454526, 39.753377
1014, 85.365798, 55.846611, 39.834595
1015, 85.313815, 55.452592, 39.731199
1016, 86.508749, 56.820499, 39.772820
1017, 86.760273, 55.472365, 39.753882
1018, 83.471085, 55.880097, 41.258864
1019, 83.568572, 55.469897, 41.435364
1020, 85.345079, 55.876202, 41.314333
1021, 85.266472, 55.448750, 41.440707
1022, 86.499885, 56.859883, 41.280825
1023, 86.764308, 55.485898, 41.540299
1024, 83.966041, 56.573689, 41.968023
1025, 83.332151, 57.260792, 41.491453
1026, 83.379336, 55.571011, 42.793546
1027, 85.091059, 56.633783, 42.150073
1028, 85.225019, 55.445905, 42.928172
1029, 85.934840, 57.494230, 41.834759
1030, 86.754537, 55.448571, 42.906054
1031, 85.199313, 56.617612, 43.589218
1032, 84.308727, 56.540527, 43.550196
1033, 85.151682, 55.595112, 44.500952
1034, 83.679876, 55.493317, 44.433587
1035, 86.520352, 56.976183, 43.695566
1036, 86.705491, 55.640470, 44.461166
1037, 79.755950, 54.311430, 48.629148
1038, 76.681041, 54.211108, 48.626532
1039, 74.220570, 50.778510, 44.528472
1040, 74.047413, 52.236939, 44.426941
1041, 74.200116, 52.227013, 46.049879
1042, 74.225044, 50.741013, 46.018681
1043, 75.729631, 52.446243, 44.986464
1044, 74.665981, 52.161955, 46.171181
1045, 75.783980, 50.932314, 46.129000
1046, 74.199790, 53.453294, 44.726850
1047, 73.921226, 53.650392, 46.109079
1048, 75.788349, 53.448225, 45.409516
1049, 74.931906, 53.922251, 46.182105
1050, 74.210072, 52.245445, 47.720833
1051, 74.223955, 50.746414, 47.720651
1052, 74.666710, 52.182588, 47.593742
1053, 75.779435, 50.932115, 47.621475
1054, 74.119074, 53.995957, 47.734909
1055, 74.818493, 54.017496, 47.511051
1056, 74.219111, 52.336683, 49.222665
1057, 74.220454, 50.778693, 49.221347
1058, 75.883153, 52.483418, 48.836109
1059, 74.301847, 53.937544, 49.157987
1060, 76.008271, 53.547038, 48.832724
1061, 74.864803, 54.639346, 48.058583
1062, 75.213232, 54.586430, 49.143417
1063, 75.504763, 54.541805, 47.636773
1064, 75.712273, 54.499994, 46.303704
1065, 74.295172, 53.364593, 43.301258
1066, 75.440548, 53.625465, 43.076370
1067, 81.586063, 52.166926, 46.167892
1068, 80.479093, 50.942687, 46.128291
1069, 80.389885, 52.455772, 44.930128
1070, 82.043152, 52.233419, 46.034101
1071, 82.024588, 50.740882, 46.016184
1072, 82.029540, 50.778682, 44.528639
1073, 82.030760, 52.334488, 44.526192
1074, 81.577406, 54.065801, 46.189264
1075, 80.370708, 53.667696, 44.865533
1076, 82.036404, 53.953667, 46.056450
1077, 82.027079, 53.945996, 44.516254
1078, 81.115409, 54.802344, 46.304005
1079, 82.124966, 54.970541, 46.202309
1080, 81.888592, 55.076621, 44.671333
1081, 81.586820, 52.167476, 47.582803
1082, 80.481378, 50.940699, 47.622717
1083, 82.043606, 52.233830, 47.714268
1084, 82.024902, 50.742066, 47.731386
1085, 81.573000, 54.070204, 47.560899
1086, 82.036249, 53.952309, 47.693378
1087, 81.110697, 54.746941, 47.505930
1088, 82.099100, 54.852231, 47.614671
1089, 80.397155, 52.455579, 48.822616
1090, 82.030759, 52.334471, 49.223807
1091, 82.029539, 50.778680, 49.221362
1092, 80.353798, 53.643147, 48.894813
1093, 82.027996, 53.938675, 49.229729
1094, 81.761693, 54.701025, 49.088172
1095, 79.748476, 54.311713, 51.368243
1096, 76.684147, 54.210722, 51.366616
1097, 89.628973, 55.875659, 39.856947
1098, 88.512033, 56.799675, 39.775188
1099, 89.695947, 55.451205, 39.743760
1100, 88.244725, 55.472464, 39.754222
1101, 91.617090, 55.817726, 39.858914
1102, 91.507966, 55.447075, 39.757496
1103, 93.034125, 56.623261, 40.031792
1104, 92.968750, 55.468750, 39.843750
1105, 89.653938, 55.893130, 41.310890
1106, 88.505801, 56.857283, 41.284172
1107, 89.737189, 55.451145, 41.443572
1108, 88.236604, 55.486191, 41.542798
1109, 91.555300, 55.900792, 41.279504
1110, 91.420422, 55.468381, 41.422665
1111, 92.932530, 56.509528, 41.066135
1112, 93.159634, 55.701685, 41.539351
1113, 89.917311, 56.707405, 42.193752
1114, 89.094548, 57.524807, 41.856156
1115, 89.816906, 55.460804, 42.953170
1116, 88.256803, 55.453875, 42.922287
1117, 91.107624, 56.657948, 42.046282
1118, 91.645999, 55.639106, 42.865668
1119, 91.798480, 57.327195, 41.617165
1120, 92.908000, 55.700285, 42.834989
1121, 89.821044, 56.678677, 43.687975
1122, 88.480861, 56.985500, 43.711401
1123, 89.838343, 55.615412, 44.526782
1124, 88.297312, 55.669586, 44.490772
1125, 90.713255, 56.554147, 43.644777
1126, 91.202656, 55.497730, 44.431538
1127, 95.545242, 56.201809, 39.895207
1128, 94.533488, 56.479085, 39.861063
1129, 94.422271, 56.637198, 38.514596
1130, 95.582965, 56.242084, 38.995464
1131, 96.080619, 55.260541, 39.825976
1132, 94.531250, 55.468750, 39.843750
1133, 95.408138, 56.144706, 40.763039
1134, 94.513277, 56.378858, 40.877200
1135, 95.673241, 55.277413, 41.278553
1136, 94.585179, 55.508733, 41.443260
1137, 5.832295, 43.623901, 61.760510
1138, 7.928446, 43.211897, 60.980696
1139, 7.338906, 44.992744, 60.501113
1140, 4.764916, 45.544553, 61.103974
1141, 5.890124, 43.719738, 63.169047
1142, 7.999104, 43.311295, 63.686627
1143, 7.496253, 45.140631, 64.218070
1144, 4.880184, 45.644357, 63.852540
1145, 8.445908, 43.332087, 57.875901
1146, 10.928608, 43.217111, 57.821052
1147, 10.998541, 45.188221, 57.948672
1148, 7.671174, 45.159305, 57.886628
1149, 10.760279, 42.993111, 60.826856
1150, 10.937500, 45.312500, 60.937500
1151, 13.844745, 43.260566, 57.988080
1152, 14.014008, 45.224206, 57.943379
1153, 13.635563, 42.971505, 60.886823
1154, 14.062500, 45.312500, 60.937500
1155, 10.760211, 43.018746, 63.712471
1156, 10.937500, 45.312500, 64.062500
1157, 13.577568, 42.937408, 63.741566
1158, 14.062500, 45.312500, 64.062500
1159, 4.613898, 46.850997, 55.804801
1160, 5.583371, 46.186087, 55.839423
1161, 5.621509, 47.955278, 55.419510
1162, 4.616434, 47.868181, 55.662158
1163, 4.409761, 46.821852, 56.293820
1164, 5.236613, 46.519949, 56.676368
1165, 5.217497, 47.558078, 56.849548
1166, 4.445911, 47.793499, 56.005465
1167, 5.316742, 49.109925, 55.410305
1168, 4.311924, 49.090162, 55.699252
1169, 4.580254, 48.412081, 57.936861
1170, 3.754933, 48.503169, 56.808291
1171, 4.180516, 46.889682, 56.580990
1172, 4.951592, 46.142153, 57.563032
1173, 7.734800, 48.597247, 57.964107
1174, 7.812500, 48.437500, 60.937500
1175, 4.272654, 48.162648, 60.629781
1176, 2.825447, 49.204578, 58.610255
1177, 4.567010, 51.596271, 57.935788
1178, 2.826044, 50.764822, 58.647086
1179, 2.642250, 48.677946, 61.220054
1180, 4.268342, 51.866971, 60.639579
1181, 2.644500, 51.353398, 61.246718
1182, 7.738099, 51.401759, 57.964495
1183, 7.812500, 51.562500, 60.937500
1184, 2.917703, 46.604977, 61.854307
1185, 2.958020, 46.668609, 63.282894
1186, 4.438993, 48.243127, 64.289331
1187, 2.732047, 48.732489, 63.866677
1188, 7.812500, 48.437500, 64.062500
1189, 4.451625, 51.828777, 64.291742
1190, 2.745441, 51.363292, 63.863974
1191, 7.812500, 51.562500, 64.062500
1192, 10.996535, 48.578911, 57.931913
1193, 10.937500, 48.437500, 60.937500
1194, 7.199673, 44.739927, 56.159144
1195, 8.614360, 44.545151, 55.467052
1196, 8.382318, 45.902208, 55.059458
1197, 6.919647, 46.000306, 55.369462
1198, 8.637601, 44.851245, 57.018503
1199, 8.355536, 46.116206, 55.910643
1200, 7.242971, 46.086365, 56.951802
1201, 10.115180, 44.435670, 55.430471
1202, 10.253949, 46.047826, 55.455706
1203, 9.981958, 44.898742, 57.050247
1204, 10.320008, 46.173452, 55.923195
1205, 11.577478, 44.462413, 55.555967
1206, 11.759227, 46.018905, 55.475472
1207, 11.574192, 46.151253, 57.067776
1208, 8.485709, 47.725682, 55.460325
1209, 6.806820, 47.612530, 55.231830
1210, 8.420929, 47.591031, 55.915455
1211, 7.205714, 47.569434, 56.979430
1212, 10.250899, 47.709525, 55.458616
1213, 10.314024, 47.580451, 55.920883
1214, 11.754991, 47.722862, 55.474434
1215, 11.576997, 47.604845, 57.060411
1216, 8.587038, 49.222466, 55.469089
1217, 7.028987, 49.221039, 55.470254
1218, 8.736017, 48.831674, 57.155170
1219, 10.162957, 49.222471, 55.469090
1220, 10.004933, 48.875950, 57.144060
1221, 11.721303, 49.221345, 55.470452
1222, 5.594703, 45.497821, 56.266195
1223, 8.028932, 43.563517, 56.511292
1224, 8.804543, 43.494127, 56.066117
1225, 8.992042, 43.374685, 56.883962
1226, 10.056840, 43.367803, 56.053142
1227, 9.983472, 43.276420, 56.899030
1228, 11.457978, 43.275716, 56.336531
1229, 14.007157, 48.584497, 57.930046
1230, 14.062500, 48.437500, 60.937500
1231, 10.996429, 51.423251, 57.930360
1232, 10.937500, 51.562500, 60.937500
1233, 14.006267, 51.415476, 57.930344
1234, 14.062500, 51.562500, 60.937500
1235, 10.937500, 48.437500, 64.062500
1236, 14.062500, 48.437500, 64.062500
1237, 10.937500, 51.562500, 64.062500
1238, 14.062500, 51.562500, 64.062500
1239, 20.260291, 45.640451, 54.838677
1240, 23.192058, 46.037346, 54.424264
1241, 23.344934, 48.487054, 54.828345
1242, 20.421628, 48.464714, 54.861732
1243, 18.181419, 45.296518, 50.910891
1244, 17.971974, 46.060986, 50.770335
1245, 17.963741, 46.043368, 52.303987
1246, 17.905252, 45.156353, 52.382754
1247, 19.656262, 46.362876, 51.108125
1248, 18.427583, 45.932025, 52.440621
1249, 18.905165, 45.251118, 52.500276
1250, 17.969218, 47.665176, 50.776389
1251, 17.957102, 47.765490, 52.283613
1252, 19.610500, 47.537307, 51.182771
1253, 18.412802, 47.833218, 52.416220
1254, 17.970461, 49.221319, 50.778638
1255, 17.975214, 49.258445, 52.267521
1256, 19.518536, 49.058123, 52.377323
1257, 17.963461, 46.040284, 53.947692
1258, 17.881072, 45.052265, 53.828735
1259, 18.422701, 45.931229, 53.810446
1260, 18.905996, 45.199324, 53.706887
1261, 17.956750, 47.778773, 53.972247
1262, 18.406809, 47.838093, 53.835799
1263, 17.975263, 49.258988, 53.982646
1264, 19.518432, 49.064187, 53.870331
1265, 18.005834, 45.980782, 55.487643
1266, 18.026446, 45.024079, 55.424521
1267, 19.645569, 46.304437, 55.121664
1268, 18.025694, 47.776465, 55.484208
1269, 19.619566, 47.592454, 55.050825
1270, 17.972787, 49.223631, 55.472827
1271, 17.222866, 45.253807, 57.809096
1272, 17.785562, 46.092128, 57.019857
1273, 20.270906, 45.855845, 57.723768
1274, 19.558808, 46.401985, 57.007372
1275, 17.772922, 47.680792, 57.037108
1276, 19.499900, 47.586913, 56.981716
1277, 17.296920, 48.582834, 57.934619
1278, 20.244980, 48.344898, 57.741684
1279, 25.181002, 45.947649, 52.490876
1280, 24.562729, 45.417998, 52.347383
1281, 24.019244, 46.399219, 51.163123
1282, 25.949889, 45.997023, 52.296168
1283, 25.335421, 45.353231, 51.918514
1284, 25.316939, 45.376983, 50.756278
1285, 25.814699, 45.973346, 50.962439
1286, 25.336033, 47.826040, 52.407587
1287, 24.137713, 47.527871, 51.177402
1288, 25.791201, 47.762665, 52.277523
1289, 25.780867, 47.663669, 50.777138
1290, 24.222125, 49.062055, 52.376119
1291, 25.775307, 49.256893, 52.272844
1292, 25.779546, 49.221307, 50.778653
1293, 25.332021, 47.839466, 53.829837
1294, 25.081011, 46.043159, 53.816079
1295, 25.799351, 47.771266, 53.952287
1296, 26.111754, 46.338598, 53.917385
1297, 24.216703, 49.068260, 53.868288
1298, 25.774917, 49.258796, 53.981149
1299, 24.268454, 47.530691, 55.018499
1300, 24.213033, 46.522709, 54.595888
1301, 25.952545, 47.761011, 55.602946
1302, 25.838434, 46.558340, 55.302718
1303, 25.779430, 49.221489, 55.471528
1304, 24.331041, 45.469988, 53.695155
1305, 23.350407, 51.508635, 54.825094
1306, 20.420864, 51.536158, 54.862174
1307, 22.921819, 46.495643, 57.441134
1308, 23.675625, 48.046854, 57.979193
1309, 23.683615, 51.927198, 57.929160
1310, 20.241209, 51.658965, 57.736934
1311, 15.947231, 43.353200, 58.382027
1312, 15.873490, 43.082667, 61.016479
1313, 17.331051, 45.097344, 60.965227
1314, 15.787854, 43.021148, 63.785681
1315, 17.186550, 45.102052, 64.076740
1316, 17.187500, 48.437500, 60.937500
1317, 13.401956, 44.479269, 55.559132
1318, 14.847993, 44.446359, 55.418078
1319, 14.722748, 46.041235, 55.451746
1320, 13.232513, 46.004665, 55.477641
1321, 15.000050, 44.936444, 57.000198
1322, 14.662430, 46.167570, 55.915449
1323, 13.430087, 46.164688, 57.061578
1324, 16.315529, 44.625416, 55.467295
1325, 16.503272, 46.065076, 55.453216
1326, 16.298603, 45.040228, 56.903681
1327, 16.565998, 46.176493, 55.906798
1328, 14.745503, 47.715896, 55.459256
1329, 13.243522, 47.725561, 55.474704
1330, 14.681454, 47.583383, 55.916598
1331, 13.425874, 47.607575, 57.055144
1332, 16.522171, 47.726512, 55.457688
1333, 16.557458, 47.619538, 55.943871
1334, 14.836685, 49.222666, 55.469111
1335, 13.278694, 49.221347, 55.470454
1336, 15.002942, 48.855696, 57.130741
1337, 16.414700, 49.223470, 55.469204
1338, 16.276616, 48.791119, 57.130363
1339, 13.356964, 43.307600, 56.403604
1340, 14.746006, 43.447291, 56.128027
1341, 14.863714, 43.388600, 57.024423
1342, 15.653033, 43.615121, 56.167844
1343, 15.710357, 43.605220, 57.124061
1344, 20.434228, 46.147655, 60.775764
1345, 20.782119, 48.208993, 61.111564
1346, 17.299485, 51.417281, 57.934202
1347, 17.187500, 51.562500, 60.937500
1348, 20.790090, 51.787749, 61.070612
1349, 17.187500, 48.437500, 64.062500
1350, 19.799565, 46.181594, 63.938944
1351, 20.491199, 48.698926, 63.786539
1352, 17.187500, 51.562500, 64.062500
1353, 20.486543, 51.288755, 63.767497
1354, 22.562381, 46.646100, 59.788756
1355, 23.617460, 48.726631, 59.996707
1356, 24.931238, 49.252810, 58.897890
1357, 25.378781, 48.444828, 58.573556
1358, 24.628526, 47.621236, 58.107629
1359, 26.014097, 49.384435, 58.211430
1360, 25.871563, 48.508543, 58.196321
1361, 25.899501, 48.051406, 57.302758
1362, 25.950572, 49.032677, 57.157084
1363, 24.689704, 48.476340, 59.603588
1364, 24.530079, 49.350183, 59.723326
1365, 24.782543, 48.571999, 59.593459
1366, 24.522888, 46.409931, 56.940826
1367, 25.691156, 46.668633, 56.716865
1368, 23.591280, 51.262720, 59.990831
1369, 22.614267, 49.394459, 62.625904
1370, 22.601252, 50.603438, 62.624972
1371, 8.747805, 43.484161, 65.823574
1372, 10.934878, 43.227442, 65.906641
1373, 10.902709, 45.293298, 67.132087
1374, 7.975239, 45.536999, 66.931376
1375, 13.559072, 43.129334, 65.927387
1376, 13.927222, 45.231837, 67.151160
1377, 5.479098, 46.215990, 66.318417
1378, 7.541535, 48.239625, 67.357477
1379, 4.948201, 48.722054, 66.879405
1380, 3.060106, 49.359318, 65.882317
1381, 4.939762, 51.422099, 66.872052
1382, 3.061641, 50.795648, 65.879958
1383, 7.534904, 51.837413, 67.363577
1384, 5.983465, 49.374000, 68.774035
1385, 8.081783, 48.746951, 69.197170
1386, 8.057878, 51.318785, 69.209432
1387, 5.980249, 50.760266, 68.779047
1388, 10.937500, 48.437500, 67.187500
1389, 14.062500, 48.437500, 67.187500
1390, 10.937500, 51.562500, 67.187500
1391, 14.062500, 51.562500, 67.187500
1392, 8.814442, 46.570534, 69.028584
1393, 11.057410, 46.416993, 69.285125
1394, 10.938737, 48.641673, 69.542516
1395, 13.841381, 46.365504, 69.319540
1396, 14.001187, 48.613598, 69.576718
1397, 10.938092, 51.378782, 69.545721
1398, 13.993856, 51.381353, 69.578227
1399, 15.615532, 43.233330, 65.857593
1400, 16.784327, 45.416018, 66.937610
1401, 17.303620, 48.181360, 67.389477
1402, 19.191984, 46.329055, 66.343881
1403, 19.424400, 48.624520, 66.989612
1404, 17.302430, 51.780634, 67.388225
1405, 19.424134, 51.338542, 66.982533
1406, 16.082490, 46.444288, 69.091071
1407, 16.829339, 48.669603, 69.256355
1408, 16.831148, 51.294196, 69.261140
1409, 18.740783, 49.249569, 68.835739
1410, 18.730374, 50.696102, 68.836080
1411, 76.803821, 46.049676, 54.420659
1412, 79.743058, 45.641967, 54.836907
1413, 79.580879, 48.464670, 54.862485
1414, 76.654688, 48.489229, 54.830340
1415, 75.166770, 45.397783, 50.857857
1416, 74.271662, 46.047078, 50.838926
1417, 74.095634, 45.991450, 52.263547
1418, 74.834922, 45.336312, 51.937816
1419, 75.998377, 46.427059, 51.166727
1420, 74.805967, 45.961549, 52.489364
1421, 75.491537, 45.423443, 52.357295
1422, 74.219111, 47.663318, 50.777335
1423, 74.209716, 47.758019, 52.278006
1424, 75.878018, 47.520970, 51.168439
1425, 74.665688, 47.820143, 52.405776
1426, 74.220454, 49.221307, 50.778653
1427, 74.224130, 49.254422, 52.277990
1428, 75.779667, 49.066994, 52.378445
1429, 74.200584, 47.767501, 53.947817
1430, 73.901658, 46.331132, 53.882452
1431, 74.668327, 47.834342, 53.827597
1432, 74.914576, 46.054753, 53.811229
1433, 74.224967, 49.258618, 53.980984
1434, 75.786425, 49.065099, 53.872555
1435, 74.036434, 47.749148, 55.559133
1436, 74.186749, 46.524395, 55.251239
1437, 75.710296, 47.530629, 55.004188
1438, 75.778169, 46.524381, 54.583443
1439, 74.220570, 49.221489, 55.471528
1440, 75.688169, 45.474307, 53.689805
1441, 81.573732, 45.929432, 52.439386
1442, 81.115601, 45.245626, 52.501829
1443, 80.351309, 46.358022, 51.109584
1444, 82.036284, 46.046648, 52.305635
1445, 82.113378, 45.158657, 52.382879
1446, 81.823056, 45.305614, 50.912325
1447, 82.028118, 46.062071, 50.770430
1448, 81.587631, 47.834253, 52.415352
1449, 80.394827, 47.539589, 51.187428
1450, 82.043247, 47.767734, 52.283136
1451, 82.030759, 47.665529, 50.776193
1452, 80.483694, 49.056875, 52.375605
1453, 82.024770, 49.258610, 52.267063
1454, 82.029539, 49.221320, 50.778638
1455, 81.577949, 45.928631, 53.811549
1456, 81.113340, 45.202007, 53.709302
1457, 82.036569, 46.042698, 53.946725
1458, 82.136917, 45.052077, 53.826772
1459, 81.594181, 47.840265, 53.836923
1460, 82.043302, 47.778792, 53.972430
1461, 80.482556, 49.063461, 53.870892
1462, 82.024775, 49.258836, 53.982353
1463, 80.355790, 46.304811, 55.120549
1464, 81.994133, 45.981065, 55.487643
1465, 81.980518, 45.020205, 55.420181
1466, 80.382024, 47.594381, 55.048357
1467, 81.973201, 47.778636, 55.484301
1468, 82.027112, 49.223782, 55.472982
1469, 80.436797, 46.402430, 56.999017
1470, 79.723723, 45.859013, 57.708475
1471, 82.214994, 46.093528, 57.015315
1472, 82.775180, 45.256773, 57.801614
1473, 80.495863, 47.587711, 56.978771
1474, 82.229908, 47.681105, 57.035603
1475, 79.756983, 48.341869, 57.738125
1476, 82.701820, 48.581543, 57.936170
1477, 79.579669, 51.536692, 54.862672
1478, 76.650958, 51.508177, 54.823762
1479, 77.035036, 46.478550, 57.383636
1480, 76.260913, 48.064623, 57.917543
1481, 79.757556, 51.658948, 57.740276
1482, 76.320976, 52.003502, 57.989615
1483, 84.063944, 43.363505, 58.391475
1484, 86.165610, 43.269795, 58.006388
1485, 85.983274, 45.224862, 57.944348
1486, 84.119436, 43.091160, 60.997477
1487, 86.344443, 42.973111, 60.880276
1488, 85.937500, 45.312500, 60.937500
1489, 82.659300, 45.103140, 60.939536
1490, 89.075943, 43.232782, 57.857855
1491, 89.001833, 45.195280, 57.957752
1492, 89.230284, 43.002525, 60.836262
1493, 89.062500, 45.312500, 60.937500
1494, 84.186792, 43.028668, 63.744449
1495, 86.405009, 42.939556, 63.721419
1496, 85.937500, 45.312500, 64.062500
1497, 82.796223, 45.101779, 64.041471
1498, 89.231987, 43.029163, 63.712163
1499, 89.062500, 45.312500, 64.062500
1500, 77.374126, 46.663236, 59.690607
1501, 79.536249, 46.162058, 60.714155
1502, 79.201319, 48.220399, 61.051825
1503, 76.365222, 48.743772, 59.982889
1504, 74.062376, 48.032780, 57.241568
1505, 74.010298, 49.045046, 57.120686
1506, 73.956311, 49.395943, 58.221785
1507, 74.075840, 48.504481, 58.180583
1508, 75.253119, 47.618963, 58.040428
1509, 74.961296, 49.301723, 58.882111
1510, 74.489348, 48.436246, 58.506339
1511, 75.423401, 49.383903, 59.742268
1512, 75.108584, 48.549749, 59.561242
1513, 75.183784, 48.472072, 59.566505
1514, 74.271556, 46.619989, 56.650678
1515, 75.410044, 46.396298, 56.868526
1516, 82.812500, 48.437500, 60.937500
1517, 79.210366, 51.788335, 61.060779
1518, 76.400868, 51.316680, 60.034404
1519, 82.701764, 51.419480, 57.935992
1520, 82.812500, 51.562500, 60.937500
1521, 80.168560, 46.180898, 63.876005
1522, 82.812500, 48.437500, 64.062500
1523, 79.492097, 48.709476, 63.735811
1524, 77.364905, 49.419123, 62.596238
1525, 79.491348, 51.276639, 63.746678
1526, 77.392886, 50.601060, 62.627296
1527, 82.812500, 51.562500, 64.062500
1528, 85.993556, 48.585010, 57.929700
1529, 85.937500, 48.437500, 60.937500
1530, 83.687166, 44.634287, 55.466703
1531, 83.494836, 46.065248, 55.452565
1532, 83.700374, 45.040014, 56.890428
1533, 83.431652, 46.174048, 55.903721
1534, 85.159594, 44.457386, 55.427577
1535, 85.278650, 46.041491, 55.451346
1536, 85.001013, 44.939958, 56.995424
1537, 85.339306, 46.166901, 55.915005
1538, 86.596630, 44.477892, 55.586343
1539, 86.768065, 46.003609, 55.477794
1540, 86.570139, 46.165700, 57.062515
1541, 83.477273, 47.728563, 55.458107
1542, 83.442351, 47.620707, 55.943107
1543, 85.254488, 47.715985, 55.459252
1544, 85.318586, 47.583751, 55.916372
1545, 86.756331, 47.725197, 55.474669
1546, 86.574567, 47.607172, 57.055196
1547, 83.585298, 49.223469, 55.469204
1548, 83.723923, 48.787033, 57.129923
1549, 85.163315, 49.222666, 55.469111
1550, 84.995543, 48.855350, 57.130656
1551, 86.721306, 49.221347, 55.470454
1552, 84.337275, 43.639637, 56.145204
1553, 85.252206, 43.460602, 56.124071
1554, 84.286366, 43.633903, 57.103190
1555, 85.131650, 43.399426, 57.028378
1556, 86.633891, 43.310810, 56.412609
1557, 89.003044, 48.579189, 57.933866
1558, 89.062500, 48.437500, 60.937500
1559, 85.992905, 51.415149, 57.928696
1560, 85.937500, 51.562500, 60.937500
1561, 89.001789, 51.422532, 57.930743
1562, 89.062500, 51.562500, 60.937500
1563, 85.937500, 48.437500, 64.062500
1564, 89.062500, 48.437500, 64.062500
1565, 85.937500, 51.562500, 64.062500
1566, 89.062500, 51.562500, 64.062500
1567, 91.533524, 43.334263, 57.866230
1568, 92.310693, 45.186098, 57.865631
1569, 92.050834, 43.254377, 60.993109
1570, 92.653341, 45.034185, 60.504239
1571, 92.007984, 43.337320, 63.690827
1572, 92.497239, 45.146108, 64.211590
1573, 94.146849, 43.684556, 61.797109
1574, 95.215167, 45.563406, 61.109649
1575, 94.105209, 43.752540, 63.181660
1576, 95.107192, 45.656260, 63.849192
1577, 92.260849, 48.596432, 57.977276
1578, 92.187500, 48.437500, 60.937500
1579, 88.403858, 44.441093, 55.578049
1580, 89.867397, 44.409546, 55.454188
1581, 89.743967, 46.046679, 55.455520
1582, 88.238772, 46.015119, 55.476001
1583, 90.014221, 44.901248, 57.053242
1584, 89.677740, 46.173346, 55.923019
1585, 88.425833, 46.155708, 57.071955
1586, 91.310717, 44.566964, 55.548863
1587, 91.526094, 46.034198, 55.453235
1588, 91.338955, 44.895691, 57.013553
1589, 91.586039, 46.148526, 55.885164
1590, 92.673675, 44.831864, 55.882863
1591, 93.029221, 46.052214, 55.432974
1592, 92.738607, 46.122373, 56.923565
1593, 89.750031, 47.708715, 55.458551
1594, 88.245174, 47.722476, 55.474399
1595, 89.686106, 47.579839, 55.920531
1596, 88.421691, 47.603184, 57.062583
1597, 91.506889, 47.722928, 55.460635
1598, 91.568542, 47.595783, 55.930575
1599, 93.192367, 47.625364, 55.252442
1600, 92.784098, 47.579432, 56.972193
1601, 89.837044, 49.222471, 55.469090
1602, 88.278698, 49.221345, 55.470452
1603, 89.999024, 48.879354, 57.146561
1604, 91.412963, 49.222468, 55.469089
1605, 91.256809, 48.826484, 57.160706
1606, 92.971013, 49.221039, 55.470254
1607, 88.520451, 43.266150, 56.354105
1608, 89.903414, 43.337997, 56.080495
1609, 89.997690, 43.261652, 56.921756
1610, 91.115137, 43.476207, 56.084532
1611, 90.938018, 43.387771, 56.937080
1612, 91.853630, 43.573606, 56.413834
1613, 95.083509, 46.210920, 57.512746
1614, 95.401638, 48.420062, 57.930536
1615, 95.736732, 48.176830, 60.646448
1616, 92.268937, 51.403289, 57.970890
1617, 92.187500, 51.562500, 60.937500
1618, 95.397035, 51.585313, 57.903729
1619, 95.720544, 51.842365, 60.634848
1620, 92.187500, 48.437500, 64.062500
1621, 95.547637, 48.233347, 64.294620
1622, 92.187500, 51.562500, 64.062500
1623, 95.533801, 51.791033, 64.298818
1624, 94.399330, 46.281525, 55.804764
1625, 95.386225, 46.988275, 55.784209
1626, 95.374359, 47.954093, 55.646680
1627, 94.359720, 47.993159, 55.440899
1628, 94.766128, 46.601151, 56.692697
1629, 95.594289, 46.958285, 56.243427
1630, 95.569087, 47.876559, 55.979984
1631, 94.791239, 47.585715, 56.837162
1632, 95.689297, 49.117118, 55.691076
1633, 94.660779, 49.141408, 55.423638
1634, 96.250295, 48.549263, 56.786913
1635, 95.846331, 47.044049, 56.530181
1636, 94.417261, 45.626091, 56.101330
1637, 97.165123, 49.254284, 58.679975
1638, 97.151449, 50.774947, 58.681096
1639, 97.343494, 48.689859, 61.266166
1640, 97.340566, 51.342299, 61.246134
1641, 97.061154, 46.643358, 61.903037
1642, 97.002769, 46.676181, 63.315772
1643, 97.243394, 48.708974, 63.878005
1644, 97.232556, 51.323740, 63.875154
1645, 84.366007, 43.218519, 65.805271
1646, 86.417787, 43.117900, 65.896970
1647, 86.067144, 45.214952, 67.130599
1648, 83.187827, 45.397244, 66.886245
1649, 89.061465, 43.233124, 65.892925
1650, 89.090985, 45.278366, 67.124245
1651, 80.746426, 46.303090, 66.280165
1652, 82.659670, 48.177746, 67.357809
1653, 80.530864, 48.626129, 66.938196
1654, 82.654134, 51.782602, 67.379891
1655, 80.527882, 51.311653, 66.965482
1656, 81.204368, 49.236613, 68.789066
1657, 83.120771, 48.638870, 69.230037
1658, 83.116244, 51.282880, 69.246181
1659, 81.197039, 50.666102, 68.806494
1660, 85.937500, 48.437500, 67.187500
1661, 89.062500, 48.437500, 67.187500
1662, 85.937500, 51.562500, 67.187500
1663, 89.062500, 51.562500, 67.187500
1664, 83.878473, 46.397839, 69.055646
1665, 86.139009, 46.325939, 69.292025
1666, 85.970025, 48.584946, 69.556349
1667, 88.927671, 46.391371, 69.261178
1668, 89.044447, 48.613081, 69.534062
1669, 85.963914, 51.355443, 69.567434
1670, 89.037851, 51.351857, 69.542497
1671, 91.253235, 43.498316, 65.812049
1672, 92.024744, 45.523429, 66.922086
1673, 92.450966, 48.206146, 67.342863
1674, 94.510446, 46.214110, 66.300701
1675, 95.031383, 48.686905, 66.849364
1676, 92.443918, 51.788529, 67.350816
1677, 95.028508, 51.357496, 66.858337
1678, 91.186275, 46.539123, 69.017885
1679, 91.918417, 48.711709, 69.193890
1680, 91.909030, 51.283175, 69.190520
1681, 93.997887, 49.325750, 68.748340
1682, 93.994890, 50.702881, 68.751735
1683, 96.917010, 49.318906, 65.879649
1684, 96.910325, 50.735499, 65.882328
1685, 4.300346, 50.934106, 55.699558
1686, 5.313314, 50.901551, 55.406573
1687, 5.613020, 52.058030, 55.417606
1688, 4.608798, 52.159860, 55.657757
1689, 3.757633, 51.486997, 56.809178
1690, 5.207334, 52.465295, 56.862954
1691, 4.451838, 52.231931, 55.992258
1692, 5.588330, 53.861824, 55.852639
1693, 4.599523, 53.164366, 55.816484
1694, 5.223483, 53.523103, 56.709446
1695, 4.414143, 53.195335, 56.287736
1696, 4.927953, 53.890455, 57.593639
1697, 4.142446, 53.113078, 56.583065
1698, 2.820320, 50.537656, 57.524456
1699, 2.821709, 49.427831, 57.524104
1700, 7.676293, 54.845285, 57.902898
1701, 7.336921, 55.007155, 60.538200
1702, 4.769777, 54.474587, 61.149055
1703, 2.927811, 53.440847, 61.888009
1704, 4.896757, 54.401014, 63.842609
1705, 2.991791, 53.397791, 63.285254
1706, 7.502158, 54.870922, 64.221587
1707, 7.920779, 56.754720, 61.045600
1708, 5.848757, 56.355524, 61.817958
1709, 7.997302, 56.669894, 63.706206
1710, 5.911409, 56.280337, 63.187818
1711, 11.000583, 54.807658, 57.945000
1712, 10.937500, 54.687500, 60.937500
1713, 7.028987, 50.778961, 55.470254
1714, 8.587038, 50.777533, 55.469089
1715, 8.484908, 52.275801, 55.460009
1716, 6.798457, 52.395414, 55.233442
1717, 8.736840, 51.160726, 57.155478
1718, 8.419777, 52.413311, 55.911687
1719, 7.202127, 52.434679, 56.985388
1720, 10.162958, 50.777530, 55.469090
1721, 10.249972, 52.291294, 55.458557
1722, 10.005826, 51.120889, 57.144025
1723, 10.314336, 52.420360, 55.920948
1724, 11.721303, 50.778654, 55.470452
1725, 11.755312, 52.276401, 55.474507
1726, 11.576317, 52.394911, 57.060545
1727, 8.375740, 54.108073, 55.065306
1728, 6.914102, 54.011731, 55.378643
1729, 8.355259, 53.889801, 55.912252
1730, 7.233348, 53.916901, 56.965054
1731, 10.251460, 53.952598, 55.456272
1732, 10.319740, 53.826785, 55.923127
1733, 11.758551, 53.979716, 55.475350
1734, 11.575979, 53.846760, 57.065887
1735, 8.611616, 55.469514, 55.490012
1736, 7.197887, 55.281391, 56.205992
1737, 8.640132, 55.158463, 57.038366
1738, 10.108050, 55.575161, 55.431409
1739, 9.980894, 55.108794, 57.059297
1740, 11.568763, 55.543565, 55.553061
1741, 5.570102, 54.536133, 56.296095
1742, 14.014011, 54.774071, 57.942831
1743, 14.062500, 54.687500, 60.937500
1744, 10.908160, 56.761804, 57.867954
1745, 8.460734, 56.658267, 57.940828
1746, 10.759066, 56.987085, 60.870752
1747, 13.853075, 56.711791, 57.988194
1748, 13.654908, 57.015071, 60.900659
1749, 10.937500, 54.687500, 64.062500
1750, 14.062500, 54.687500, 64.062500
1751, 10.771139, 56.964046, 63.738418
1752, 13.605771, 57.037222, 63.751663
1753, 8.036690, 56.461189, 56.571862
1754, 8.805934, 56.531691, 56.114384
1755, 8.998584, 56.627414, 56.946085
1756, 10.041031, 56.655331, 56.090748
1757, 9.977665, 56.726501, 56.933351
1758, 11.443602, 56.727257, 56.359171
1759, 23.171666, 53.926772, 54.418642
1760, 20.254095, 54.343202, 54.841984
1761, 17.970461, 50.778680, 50.778638
1762, 17.969241, 52.334471, 50.776193
1763, 17.956761, 52.232240, 52.283181
1764, 17.975319, 50.741021, 52.266427
1765, 19.606024, 52.461545, 51.187201
1766, 18.412793, 52.166134, 52.415358
1767, 19.517535, 50.943248, 52.376160
1768, 17.971944, 53.938381, 50.770567
1769, 17.963572, 53.957001, 52.305106
1770, 19.651857, 53.636968, 51.109360
1771, 18.430026, 54.064217, 52.441401
1772, 18.174935, 54.682031, 50.912319
1773, 17.903831, 54.813489, 52.384895
1774, 18.899241, 54.729816, 52.504878
1775, 17.956610, 52.221157, 53.972236
1776, 17.975291, 50.740793, 53.982989
1777, 18.406284, 52.159644, 53.837210
1778, 19.518162, 50.936551, 53.871106
1779, 17.963600, 53.959686, 53.947540
1780, 18.423905, 54.067173, 53.809689
1781, 17.879117, 54.917121, 53.836295
1782, 18.899493, 54.775228, 53.715001
1783, 18.026210, 52.222478, 55.484274
1784, 17.972788, 50.776367, 55.472828
1785, 19.617202, 52.406171, 55.047904
1786, 18.003999, 54.014777, 55.486863
1787, 19.645799, 53.688333, 55.120117
1788, 18.026658, 54.961263, 55.432783
1789, 17.771369, 52.317992, 57.037086
1790, 19.502043, 52.411182, 56.981182
1791, 17.782651, 53.901584, 57.020350
1792, 19.560384, 53.595643, 57.005292
1793, 17.226227, 54.737835, 57.806978
1794, 20.266482, 54.140431, 57.713132
1795, 25.333559, 52.181262, 52.407119
1796, 24.220279, 50.930368, 52.380730
1797, 24.117254, 52.484011, 51.160260
1798, 25.789934, 52.245311, 52.279247
1799, 25.776067, 50.746569, 52.279753
1800, 25.779546, 50.778693, 50.778653
1801, 25.780889, 52.336682, 50.777335
1802, 25.150615, 54.038760, 52.471361
1803, 23.985853, 53.556453, 51.158735
1804, 25.871170, 54.022734, 52.244452
1805, 25.705454, 53.950618, 50.822305
1806, 24.469631, 54.550748, 52.329153
1807, 25.121577, 54.656326, 51.906605
1808, 24.794470, 54.588691, 50.830739
1809, 25.335057, 52.167134, 53.827958
1810, 24.215142, 50.934194, 53.871681
1811, 25.799213, 52.231625, 53.949319
1812, 25.775050, 50.741538, 53.980675
1813, 25.045364, 53.948582, 53.805211
1814, 26.075062, 53.681875, 53.880194
1815, 24.276481, 52.464328, 55.013946
1816, 25.988050, 52.244841, 55.567696
1817, 25.779431, 50.778511, 55.471528
1818, 24.198943, 53.462320, 54.579207
1819, 25.816193, 53.474218, 55.267044
1820, 24.263083, 54.515185, 53.677438
1821, 22.914466, 53.486453, 57.390693
1822, 17.338750, 54.891618, 60.953432
1823, 13.278694, 50.778653, 55.470454
1824, 14.836685, 50.777334, 55.469111
1825, 14.745485, 52.284099, 55.459245
1826, 13.243322, 52.274137, 55.474748
1827, 15.002470, 51.145455, 57.130611
1828, 14.681500, 52.416078, 55.916850
1829, 13.426541, 52.392305, 57.055893
1830, 16.414701, 50.776531, 55.469204
1831, 16.523147, 52.272631, 55.457767
1832, 16.276994, 51.212309, 57.129490
1833, 16.557456, 52.378340, 55.943210
1834, 14.722486, 53.957791, 55.451509
1835, 13.232384, 53.995653, 55.477672
1836, 14.662982, 53.832859, 55.915665
1837, 13.431213, 53.835933, 57.062840
1838, 16.502820, 53.935730, 55.453564
1839, 16.565867, 53.821871, 55.906204
1840, 14.842020, 55.532002, 55.426502
1841, 13.391789, 55.508971, 55.557890
1842, 15.000013, 55.060928, 56.996620
1843, 16.324761, 55.349610, 55.471545
1844, 16.306093, 54.945991, 56.898189
1845, 20.443169, 53.835195, 60.728994
1846, 15.949802, 56.630336, 58.389493
1847, 15.880331, 56.891673, 61.015542
1848, 17.201083, 54.877198, 64.067469
1849, 19.803430, 53.796504, 63.919828
1850, 15.798545, 56.940068, 63.775803
1851, 22.576290, 53.333375, 59.709827
1852, 25.430490, 51.548294, 58.545345
1853, 24.960759, 50.710499, 58.890815
1854, 24.688329, 52.372470, 58.061975
1855, 25.917210, 51.472080, 58.183025
1856, 26.042478, 50.572684, 58.203373
1857, 26.000082, 50.934112, 57.120141
1858, 25.965464, 51.941731, 57.252941
1859, 24.727153, 51.529685, 59.578071
1860, 24.818475, 51.441100, 59.568255
1861, 24.528464, 50.622924, 59.730607
1862, 24.542705, 53.589809, 56.886948
1863, 25.718424, 53.349540, 56.672065
1864, 13.348535, 56.683993, 56.417577
1865, 14.728076, 56.537721, 56.156157
1866, 14.888571, 56.588150, 57.009890
1867, 15.663146, 56.361103, 56.176089
1868, 15.717618, 56.366864, 57.110141
1869, 7.977922, 54.495145, 66.928717
1870, 5.494738, 53.867490, 66.300412
1871, 10.903933, 54.703415, 67.138174
1872, 13.920631, 54.757070, 67.154723
1873, 10.938285, 56.745899, 65.916594
1874, 8.752190, 56.505704, 65.825799
1875, 13.588807, 56.839809, 65.932890
1876, 11.054027, 53.589960, 69.297791
1877, 8.802007, 53.470535, 69.041501
1878, 13.827354, 53.629882, 69.327284
1879, 16.784787, 54.561989, 66.929098
1880, 19.202815, 53.646545, 66.332395
1881, 15.622720, 56.736898, 65.847832
1882, 16.086158, 53.540599, 69.095062
1883, 79.751668, 54.350933, 54.840712
1884, 76.826335, 53.928724, 54.436330
1885, 74.220454, 50.778693, 50.778653
1886, 74.219111, 52.336683, 50.777335
1887, 74.210032, 52.246288, 52.280175
1888, 74.223884, 50.746800, 52.280104
1889, 75.883823, 52.481350, 51.157188
1890, 74.667487, 52.182079, 52.408299
1891, 75.780059, 50.930709, 52.379892
1892, 74.304722, 53.946418, 50.825342
1893, 74.130456, 54.009401, 52.246262
1894, 76.011564, 53.553622, 51.159536
1895, 74.833159, 54.022733, 52.472121
1896, 75.222362, 54.589481, 50.830255
1897, 74.895732, 54.657095, 51.908970
1898, 75.528988, 54.552651, 52.342335
1899, 74.200930, 52.233680, 53.947983
1900, 74.225002, 50.741434, 53.980975
1901, 74.666849, 52.168968, 53.827414
1902, 75.787243, 50.934969, 53.871531
1903, 73.909675, 53.659881, 53.887650
1904, 74.932947, 53.932636, 53.817833
1905, 74.025464, 52.272983, 55.594519
1906, 74.220570, 50.778511, 55.471528
1907, 75.727062, 52.473668, 55.023332
1908, 74.176851, 53.458298, 55.288688
1909, 75.789840, 53.446610, 54.597534
1910, 75.726586, 54.510909, 53.687347
1911, 81.587689, 52.165266, 52.415882
1912, 80.483428, 50.943017, 52.375967
1913, 80.394003, 52.461375, 51.186493
1914, 82.042976, 52.233523, 52.282874
1915, 82.024766, 50.741390, 52.267073
1916, 82.029539, 50.778680, 50.778638
1917, 82.030759, 52.334471, 50.776193
1918, 81.573249, 54.068530, 52.440313
1919, 80.349845, 53.638321, 51.110809
1920, 82.036270, 53.955556, 52.304382
1921, 82.027954, 53.939038, 50.770133
1922, 81.105036, 54.752475, 52.502477
1923, 82.099069, 54.853596, 52.393095
1924, 81.758931, 54.698116, 50.913710
1925, 81.594102, 52.159107, 53.836747
1926, 80.482955, 50.937550, 53.871269
1927, 82.043380, 52.220144, 53.972970
1928, 82.024648, 50.740614, 53.983420
1929, 81.577566, 54.070202, 53.811122
1930, 82.036522, 53.957444, 53.946515
1931, 81.110010, 54.796481, 53.707106
1932, 82.149260, 54.945396, 53.824753
1933, 80.384375, 52.405365, 55.046546
1934, 81.973155, 52.220945, 55.484400
1935, 82.027112, 50.776218, 55.472982
1936, 80.358449, 53.696217, 55.119651
1937, 81.998536, 54.011474, 55.486544
1938, 82.000002, 54.977407, 55.423154
1939, 80.501831, 52.412553, 56.982082
1940, 82.229637, 52.318791, 57.036669
1941, 80.444086, 53.595642, 57.006703
1942, 82.234763, 53.904033, 57.016076
1943, 79.738474, 54.138563, 57.718421
1944, 82.797166, 54.740545, 57.801718
1945, 77.113845, 53.503408, 57.449890
1946, 79.584965, 53.825450, 60.739523
1947, 77.441842, 53.343378, 59.746871
1948, 74.017738, 50.978686, 57.173976
1949, 74.052977, 51.989624, 57.321676
1950, 74.096567, 51.535140, 58.248786
1951, 73.953569, 50.624527, 58.272852
1952, 75.358797, 52.438302, 58.124017
1953, 74.594334, 51.596266, 58.628249
1954, 75.016034, 50.775947, 58.959184
1955, 75.235720, 51.484344, 59.656643
1956, 75.427356, 50.663007, 59.757772
1957, 75.338193, 51.576354, 59.670604
1958, 74.296462, 53.359592, 56.719960
1959, 75.479449, 53.605047, 56.955418
1960, 82.671654, 54.890504, 60.956403
1961, 82.793356, 54.862586, 64.070078
1962, 80.185087, 53.770367, 63.916870
1963, 85.983830, 54.769469, 57.945687
1964, 85.937500, 54.687500, 60.937500
1965, 83.585299, 50.776531, 55.469203
1966, 83.477705, 52.273717, 55.457726
1967, 83.720878, 51.206019, 57.130240
1968, 83.441549, 52.382226, 55.942194
1969, 85.163314, 50.777334, 55.469111
1970, 85.253200, 52.283837, 55.459501
1971, 84.995333, 51.144076, 57.130255
1972, 85.319365, 52.416797, 55.916294
1973, 86.721306, 50.778654, 55.470454
1974, 86.756308, 52.274799, 55.474661
1975, 86.574076, 52.392397, 57.055813
1976, 83.501862, 53.932938, 55.453847
1977, 83.438732, 53.821080, 55.909372
1978, 85.281015, 53.958843, 55.450983
1979, 85.340048, 53.833601, 55.914562
1980, 86.769163, 53.998491, 55.478109
1981, 86.570037, 53.832390, 57.064245
1982, 83.721231, 55.372710, 55.462000
1983, 83.722661, 54.959295, 56.893781
1984, 85.171342, 55.550063, 55.417370
1985, 85.002486, 55.058872, 56.995854
1986, 86.614973, 55.523958, 55.593678
1987, 89.000611, 54.809137, 57.948236
1988, 89.062500, 54.687500, 60.937500
1989, 86.199961, 56.727996, 58.027803
1990, 84.088257, 56.637683, 58.390889
1991, 86.366238, 57.006801, 60.915117
1992, 84.132959, 56.892523, 61.025734
1993, 89.101163, 56.759928, 57.870752
1994, 89.254393, 56.978662, 60.869814
1995, 85.937500, 54.687500, 64.062500
1996, 89.062500, 54.687500, 64.062500
1997, 86.412454, 57.025768, 63.769260
1998, 84.198938, 56.943022, 63.793870
1999, 89.237082, 56.939197, 63.756851
2000, 84.384279, 56.366219, 56.157893
2001, 85.307907, 56.539698, 56.146201
2002, 84.332812, 56.365052, 57.121813
2003, 85.172170, 56.602902, 57.041783
2004, 86.672361, 56.682466, 56.426021
2005, 92.314964, 54.827729, 57.879184
2006, 92.643492, 54.985035, 60.525514
2007, 88.278697, 50.778655, 55.470452
2008, 89.837043, 50.777529, 55.469090
2009, 89.750005, 52.291255, 55.458550
2010, 88.245008, 52.277160, 55.474431
2011, 89.995835, 51.121302, 57.144619
2012, 89.686136, 52.419541, 55.920992
2013, 88.423264, 52.395300, 57.060522
2014, 91.412962, 50.777534, 55.469089
2015, 91.513171, 52.277635, 55.459714
2016, 91.265161, 51.166883, 57.157280
2017, 91.577167, 52.409204, 55.916953
2018, 92.971013, 50.778961, 55.470254
2019, 93.179425, 52.382333, 55.224178
2020, 92.785900, 52.431558, 56.973269
2021, 89.747002, 53.951369, 55.455719
2022, 88.241094, 53.980332, 55.475451
2023, 89.680407, 53.827335, 55.923306
2024, 88.425596, 53.846866, 57.068367
2025, 91.600951, 54.098343, 55.045143
2026, 91.639016, 53.877417, 55.914748
2027, 93.054616, 53.999953, 55.345847
2028, 92.736983, 53.905047, 56.939148
2029, 89.878249, 55.539509, 55.420348
2030, 88.430225, 55.521144, 55.561931
2031, 90.017541, 55.102931, 57.052591
2032, 91.370231, 55.454219, 55.469034
2033, 91.351402, 55.142602, 57.022758
2034, 92.754116, 55.239542, 56.151860
2035, 95.043271, 53.838495, 57.508648
2036, 95.211442, 54.438123, 61.126061
2037, 91.538067, 56.657225, 57.904083
2038, 92.073706, 56.721911, 61.018091
2039, 92.486186, 54.841949, 64.228542
2040, 95.091480, 54.357808, 63.872554
2041, 92.003384, 56.630708, 63.732575
2042, 94.151777, 56.304280, 61.815291
2043, 94.086240, 56.239729, 63.218732
2044, 94.660372, 50.888357, 55.406366
2045, 95.671884, 50.912447, 55.670396
2046, 95.359416, 52.099909, 55.616536
2047, 94.348045, 52.027559, 55.404998
2048, 96.232506, 51.483300, 56.763484
2049, 95.546002, 52.177973, 55.973525
2050, 94.772164, 52.421399, 56.830188
2051, 95.361153, 53.098399, 55.745416
2052, 94.374082, 53.775492, 55.791762
2053, 95.578349, 53.115785, 56.231888
2054, 94.750625, 53.454943, 56.648636
2055, 95.804397, 53.074648, 56.537133
2056, 94.361438, 54.475321, 56.229378
2057, 97.179694, 49.506274, 57.503938
2058, 97.170456, 50.550775, 57.499386
2059, 97.050772, 53.386738, 61.892714
2060, 96.985953, 53.348585, 63.326260
2061, 88.561055, 56.718830, 56.353056
2062, 89.948152, 56.639605, 56.060191
2063, 90.020414, 56.733363, 56.912408
2064, 91.172916, 56.517152, 56.078298
2065, 90.981005, 56.622987, 56.921999
2066, 91.939869, 56.441108, 56.529023
2067, 83.176346, 54.535451, 66.928359
2068, 80.761226, 53.613458, 66.325660
2069, 86.059746, 54.730978, 67.163778
2070, 89.089929, 54.676820, 67.154726
2071, 86.404877, 56.821615, 65.963075
2072, 84.352774, 56.724617, 65.869549
2073, 89.065023, 56.713194, 65.946481
2074, 86.120128, 53.593983, 69.323296
2075, 83.866725, 53.513233, 69.091269
2076, 88.917339, 53.546286, 69.300748
2077, 92.012799, 54.451043, 66.950132
2078, 94.485721, 53.808250, 66.322623
2079, 91.247265, 56.455976, 65.857571
2080, 91.170991, 53.422157, 69.048037
2081, 6.074780, 48.231604, 45.962562
2082, 7.034889, 47.768013, 46.162300
2083, 6.949323, 49.349225, 46.166538
2084, 5.988321, 49.228039, 45.982777
2085, 6.954702, 50.658416, 46.163106
2086, 6.010080, 50.787025, 45.984427
2087, 6.180541, 48.739197, 46.536068
2088, 6.236909, 48.372598, 46.518804
2089, 6.757130, 48.751774, 46.796887
2090, 6.770468, 48.218159, 46.784044
2091, 9.098573, 44.952247, 45.969161
2092, 10.217180, 44.630106, 45.990533
2093, 10.126852, 46.169565, 46.040375
2094, 8.610853, 46.121833, 46.276656
2095, 7.412842, 46.529748, 46.080107
2096, 8.604526, 47.561218, 46.038857
2097, 10.130491, 47.585774, 46.032643
2098, 8.155075, 46.387761, 46.759767
2099, 8.482845, 45.950612, 47.074205
2100, 8.939289, 45.620288, 46.823245
2101, 8.910508, 46.454758, 47.300133
2102, 8.283102, 46.563352, 47.187443
2103, 8.524318, 46.037002, 47.209716
2104, 8.995439, 45.911440, 47.251818
2105, 11.812538, 44.501057, 46.078011
2106, 11.762410, 46.176769, 46.017847
2107, 13.248536, 44.782687, 46.172863
2108, 13.253280, 46.031068, 46.131436
2109, 11.753292, 47.579603, 46.017996
2110, 13.278941, 47.701959, 46.099358
2111, 12.014039, 44.967606, 46.489567
2112, 11.261673, 44.863577, 47.003790
2113, 11.285068, 44.501422, 46.528295
2114, 12.061924, 44.913499, 47.432724
2115, 11.427472, 44.869974, 47.376822
2116, 11.642088, 44.487923, 47.078526
2117, 12.128041, 44.545090, 47.148895
2118, 10.431826, 45.665745, 47.046105
2119, 9.788050, 45.512665, 46.884596
2120, 9.919082, 45.002389, 46.801827
2121, 10.470347, 44.840561, 46.968528
2122, 10.470117, 45.682564, 47.478435
2123, 9.785299, 45.695803, 47.399057
2124, 10.032947, 45.164577, 47.277700
2125, 10.611143, 45.133916, 47.432025
2126, 11.351662, 45.730911, 46.951740
2127, 11.375342, 45.747432, 47.269953
2128, 12.011064, 45.727553, 46.477532
2129, 12.130660, 45.761490, 47.255735
2130, 10.616110, 46.304734, 46.435720
2131, 10.541195, 46.487541, 47.265319
2132, 9.716592, 46.353394, 47.345777
2133, 11.238196, 46.226984, 46.435190
2134, 11.331687, 46.486309, 47.265458
2135, 12.111904, 46.487430, 47.263077
2136, 10.609060, 44.454055, 46.532618
2137, 9.249229, 45.062337, 46.624203
2138, 12.870195, 45.109812, 46.531184
2139, 12.885166, 45.124215, 47.835742
2140, 13.273268, 44.854564, 47.681211
2141, 12.862944, 45.662410, 46.524999
2142, 12.891728, 45.693910, 47.534138
2143, 13.327554, 46.114751, 47.589874
2144, 8.577141, 49.318817, 46.041270
2145, 10.128440, 49.289770, 46.028049
2146, 8.578124, 50.681949, 46.041880
2147, 10.129998, 50.709462, 46.027546
2148, 8.293581, 48.095827, 47.018064
2149, 7.347163, 48.095293, 47.011162
2150, 7.452400, 47.661461, 46.569905
2151, 8.122817, 47.519979, 46.537054
2152, 8.204333, 47.989081, 47.480954
2153, 7.447716, 48.111245, 47.300595
2154, 7.653778, 47.420351, 47.166201
2155, 8.216746, 47.311131, 47.328548
2156, 8.922707, 48.061347, 46.499330
2157, 9.000027, 48.015381, 47.263474
2158, 8.832755, 47.238334, 47.346685
2159, 7.307815, 48.812411, 47.071170
2160, 7.437352, 48.913040, 47.413112
2161, 6.909833, 48.894997, 47.176126
2162, 6.945503, 48.355280, 47.161623
2163, 8.292547, 48.748663, 47.026407
2164, 8.217167, 48.834719, 47.531369
2165, 8.940491, 48.824992, 46.509165
2166, 9.002573, 48.869857, 47.263411
2167, 7.437571, 49.433632, 46.505447
2168, 7.463374, 49.605949, 47.287553
2169, 7.003616, 49.569482, 47.028729
2170, 8.116877, 49.352730, 46.457865
2171, 8.207408, 49.611708, 47.265415
2172, 8.985888, 49.610913, 47.264620
2173, 7.596852, 46.733289, 46.690455
2174, 7.771004, 46.833303, 47.116074
2175, 11.750311, 49.296267, 46.023336
2176, 13.277345, 49.171967, 46.100544
2177, 11.751431, 50.704357, 46.023145
2178, 13.277688, 50.827770, 46.100554
2179, 10.467181, 48.086674, 47.039518
2180, 9.838801, 48.071643, 46.481785
2181, 10.618516, 47.435430, 46.430401
2182, 10.499941, 48.021081, 47.271218
2183, 9.747377, 48.012141, 47.262677
2184, 9.764123, 47.264098, 47.264624
2185, 10.543334, 47.263673, 47.265451
2186, 11.404946, 48.086017, 47.030328
2187, 11.253039, 47.441171, 46.427142
2188, 11.375240, 48.022897, 47.271765
2189, 11.331670, 47.263674, 47.265451
2190, 12.027715, 48.042117, 46.465336
2191, 12.138223, 47.985986, 47.258222
2192, 12.111395, 47.263187, 47.263590
2193, 10.467535, 48.788725, 47.038609
2194, 9.839557, 48.802705, 46.482758
2195, 10.499938, 48.853896, 47.271243
2196, 9.747380, 48.862847, 47.262650
2197, 11.404314, 48.788422, 47.030302
2198, 11.375197, 48.852125, 47.271770
2199, 12.029486, 48.833506, 46.466694
2200, 12.137191, 48.887115, 47.258544
2201, 10.619498, 49.439915, 46.426628
2202, 10.543334, 49.611327, 47.265451
2203, 9.764123, 49.610902, 47.264624
2204, 11.254352, 49.434519, 46.427012
2205, 11.331670, 49.611326, 47.265451
2206, 12.111395, 49.611813, 47.263590
2207, 12.867028, 48.103597, 46.511451
2208, 12.950214, 48.090331, 47.448637
2209, 13.357899, 47.619273, 47.578466
2210, 12.867111, 48.772512, 46.512829
2211, 12.949156, 48.785186, 47.447955
2212, 13.353533, 49.254228, 47.579890
2213, 14.857287, 44.828811, 46.195373
2214, 14.843750, 46.093750, 46.093750
2215, 16.402295, 44.917377, 46.151546
2216, 16.406250, 46.093750, 46.093750
2217, 14.843750, 47.656250, 46.093750
2218, 16.406250, 47.656250, 46.093750
2219, 14.901260, 45.040889, 47.710490
2220, 14.843750, 46.093750, 47.656250
2221, 16.451921, 45.097969, 47.673279
2222, 16.406250, 46.093750, 47.656250
2223, 14.843750, 47.656250, 47.656250
2224, 16.406250, 47.656250, 47.656250
2225, 14.843750, 49.218750, 46.093750
2226, 16.406250, 49.218750, 46.093750
2227, 14.843750, 50.781250, 46.093750
2228, 16.406250, 50.781250, 46.093750
2229, 14.843750, 49.218750, 47.656250
2230, 16.406250, 49.218750, 47.656250
2231, 14.843750, 50.781250, 47.656250
2232, 13.353355, 50.745513, 47.580113
2233, 16.406250, 50.781250, 47.656250
2234, 13.602103, 45.196523, 49.251045
2235, 15.005159, 45.197125, 49.235596
2236, 14.843750, 46.093750, 49.218750
2237, 13.315823, 46.135946, 49.293493
2238, 12.100597, 45.778566, 48.009537
2239, 11.916924, 45.187499, 48.179530
2240, 12.322565, 45.798034, 48.076832
2241, 12.261923, 45.216799, 48.244712
2242, 12.113610, 46.508772, 48.002257
2243, 12.891002, 46.407423, 48.070247
2244, 11.902876, 45.717357, 48.918883
2245, 11.958301, 45.251462, 48.828461
2246, 12.339608, 45.793020, 48.798417
2247, 12.327770, 45.222968, 48.831870
2248, 12.112024, 46.503172, 48.862130
2249, 12.888100, 46.424182, 48.808194
2250, 12.021040, 45.689658, 49.627570
2251, 12.212341, 45.275602, 49.569204
2252, 12.880773, 45.616318, 49.397267
2253, 12.875856, 45.187324, 49.318027
2254, 12.110387, 46.485901, 49.610915
2255, 16.547088, 45.211889, 49.200843
2256, 16.406250, 46.093750, 49.218750
2257, 14.843750, 47.656250, 49.218750
2258, 13.343999, 47.633976, 49.292194
2259, 16.406250, 47.656250, 49.218750
2260, 13.610006, 45.205318, 50.764019
2261, 15.009381, 45.192958, 50.768568
2262, 14.843750, 46.093750, 50.781250
2263, 13.315451, 46.136965, 50.707953
2264, 16.550204, 45.208652, 50.797539
2265, 16.406250, 46.093750, 50.781250
2266, 14.843750, 47.656250, 50.781250
2267, 13.343104, 47.632903, 50.708012
2268, 16.406250, 47.656250, 50.781250
2269, 14.843750, 49.218750, 49.218750
2270, 13.343339, 49.240468, 49.292664
2271, 12.103486, 47.991654, 48.017031
2272, 12.112676, 47.245551, 48.009707
2273, 12.331827, 47.963457, 48.083807
2274, 12.899617, 47.334925, 48.075216
2275, 12.103396, 48.883441, 48.017378
2276, 12.332026, 48.911221, 48.083032
2277, 12.112526, 49.629067, 48.010459
2278, 12.901390, 49.541402, 48.074396
2279, 12.103937, 47.998188, 48.855556
2280, 12.112394, 47.246931, 48.863385
2281, 12.336233, 47.967386, 48.790375
2282, 12.896840, 47.338909, 48.803592
2283, 12.103944, 48.876809, 48.855531
2284, 12.337369, 48.907204, 48.790854
2285, 12.112454, 49.628493, 48.863924
2286, 12.901148, 49.537458, 48.802451
2287, 12.109549, 48.043334, 49.611327
2288, 12.110376, 47.264123, 49.610902
2289, 12.948621, 48.121047, 49.431825
2290, 12.109549, 48.831666, 49.611327
2291, 12.947259, 48.753511, 49.431819
2292, 12.110376, 49.610877, 49.610902
2293, 16.406250, 49.218750, 49.218750
2294, 14.843750, 50.781250, 49.218750
2295, 13.342725, 50.758597, 49.291260
2296, 16.406250, 50.781250, 49.218750
2297, 14.843750, 49.218750, 50.781250
2298, 13.342787, 49.240543, 50.708108
2299, 16.406250, 49.218750, 50.781250
2300, 14.843750, 50.781250, 50.781250
2301, 13.342562, 50.758614, 50.708147
2302, 16.406250, 50.781250, 50.781250
2303, 26.937707, 49.635320, 42.090275
2304, 26.940345, 50.269550, 42.076254
2305, 27.386153, 49.301952, 42.983106
2306, 27.380980, 50.630306, 42.971040
2307, 27.096082, 48.127798, 43.206510
2308, 27.433071, 47.673661, 44.449071
2309, 27.556624, 49.054816, 44.258070
2310, 27.343750, 50.781250, 44.531250
2311, 28.810586, 49.656955, 43.406636
2312, 28.760881, 50.648811, 43.440414
2313, 29.042659, 49.161320, 44.355576
2314, 29.035571, 50.882811, 44.371460
2315, 29.752147, 49.817186, 43.597013
2316, 29.760432, 50.286858, 43.604696
2317, 30.404211, 49.350282, 44.476015
2318, 30.391104, 50.643815, 44.449897
2319, 27.068850, 46.676527, 44.955888
2320, 27.452698, 46.481855, 46.129342
2321, 27.601256, 47.487371, 45.885966
2322, 27.450882, 46.268050, 47.634102
2323, 27.343750, 47.656250, 47.656250
2324, 29.099615, 46.576976, 46.528882
2325, 29.107756, 47.574888, 45.984059
2326, 29.029331, 46.417033, 47.733045
2327, 28.906250, 47.656250, 47.656250
2328, 30.583833, 46.677833, 46.696844
2329, 30.589196, 47.662958, 46.079992
2330, 30.558577, 46.511978, 47.801217
2331, 30.468750, 47.656250, 47.656250
2332, 31.946985, 46.756814, 46.780549
2333, 32.056014, 47.713907, 46.160057
2334, 32.045269, 46.583529, 47.826340
2335, 32.031250, 47.656250, 47.656250
2336, 27.343750, 49.218750, 46.093750
2337, 29.137228, 47.979429, 44.704735
2338, 28.906250, 49.218750, 46.093750
2339, 27.343750, 50.781250, 46.093750
2340, 28.906250, 50.781250, 46.093750
2341, 27.343750, 49.218750, 47.656250
2342, 28.906250, 49.218750, 47.656250
2343, 27.343750, 50.781250, 47.656250
2344, 28.906250, 50.781250, 47.656250
2345, 30.613842, 48.176762, 44.863150
2346, 30.468750, 49.218750, 46.093750
2347, 32.106360, 48.263597, 45.037195
2348, 32.089378, 49.332967, 44.821959
2349, 32.031250, 49.218750, 46.093750
2350, 30.468750, 50.781250, 46.093750
2351, 32.090603, 50.662150, 44.817919
2352, 32.031250, 50.781250, 46.093750
2353, 30.468750, 49.218750, 47.656250
2354, 32.031250, 49.218750, 47.656250
2355, 30.468750, 50.781250, 47.656250
2356, 32.031250, 50.781250, 47.656250
2357, 27.175802, 46.004458, 49.259015
2358, 27.343750, 47.656250, 49.218750
2359, 28.951927, 46.274833, 49.224871
2360, 28.906250, 47.656250, 49.218750
2361, 26.433127, 45.307071, 49.654670
2362, 26.425425, 45.309230, 50.294093
2363, 27.162832, 45.995957, 50.706235
2364, 27.343750, 47.656250, 50.781250
2365, 28.949791, 46.268848, 50.757566
2366, 28.906250, 47.656250, 50.781250
2367, 30.544837, 46.388844, 49.237930
2368, 30.468750, 47.656250, 49.218750
2369, 32.089060, 46.465217, 49.242562
2370, 32.031250, 47.656250, 49.218750
2371, 30.546686, 46.382277, 50.750534
2372, 30.468750, 47.656250, 50.781250
2373, 32.092006, 46.463367, 50.742850
2374, 32.031250, 47.656250, 50.781250
2375, 27.343750, 49.218750, 49.218750
2376, 28.906250, 49.218750, 49.218750
2377, 27.343750, 50.781250, 49.218750
2378, 28.906250, 50.781250, 49.218750
2379, 27.343750, 49.218750, 50.781250
2380, 28.906250, 49.218750, 50.781250
2381, 27.343750, 50.781250, 50.781250
2382, 28.906250, 50.781250, 50.781250
2383, 30.468750, 49.218750, 49.218750
2384, 32.031250, 49.218750, 49.218750
2385, 30.468750, 50.781250, 49.218750
2386, 32.031250, 50.781250, 49.218750
2387, 30.468750, 49.218750, 50.781250
2388, 32.031250, 49.218750, 50.781250
2389, 30.468750, 50.781250, 50.781250
2390, 32.031250, 50.781250, 50.781250
2391, 33.026773, 46.787713, 46.797531
2392, 33.490695, 47.740841, 46.189399
2393, 33.494431, 46.629069, 47.818099
2394, 33.728716, 47.509478, 47.501721
2395, 33.505096, 48.311155, 45.143057
2396, 33.625091, 49.333211, 44.958169
2397, 33.593750, 49.218750, 46.093750
2398, 34.639180, 48.384276, 45.153035
2399, 35.126096, 49.353774, 44.988249
2400, 35.124839, 47.980247, 46.024718
2401, 35.328817, 49.097349, 45.849509
2402, 33.631316, 50.634304, 44.956481
2403, 33.593750, 50.781250, 46.093750
2404, 35.126131, 50.614931, 44.991931
2405, 35.329879, 50.888958, 45.847484
2406, 33.593750, 49.218750, 47.656250
2407, 35.238297, 47.548216, 47.501975
2408, 35.156250, 49.218750, 47.656250
2409, 33.593750, 50.781250, 47.656250
2410, 35.156250, 50.781250, 47.656250
2411, 36.822968, 49.563355, 44.982598
2412, 36.828417, 50.432006, 44.996140
2413, 36.848492, 49.133775, 45.872016
2414, 36.845139, 50.858088, 45.878639
2415, 38.407440, 49.618767, 45.044153
2416, 38.405983, 50.386111, 45.058542
2417, 38.391893, 49.153799, 45.924461
2418, 38.386174, 50.844155, 45.935237
2419, 36.825823, 47.950697, 46.239084
2420, 36.797581, 47.556443, 47.565475
2421, 36.718750, 49.218750, 47.656250
2422, 38.391209, 47.958381, 46.332327
2423, 38.345233, 47.566339, 47.608223
2424, 38.281250, 49.218750, 47.656250
2425, 36.718750, 50.781250, 47.656250
2426, 38.281250, 50.781250, 47.656250
2427, 33.627673, 46.530502, 49.245875
2428, 33.593750, 47.656250, 49.218750
2429, 35.217379, 46.622555, 48.109710
2430, 35.215610, 46.559086, 49.297494
2431, 35.156250, 47.656250, 49.218750
2432, 33.633026, 46.522216, 50.738383
2433, 33.593750, 47.656250, 50.781250
2434, 35.221991, 46.556360, 50.678831
2435, 35.156250, 47.656250, 50.781250
2436, 36.803673, 46.634839, 48.215906
2437, 36.782297, 46.579175, 49.325827
2438, 36.718750, 47.656250, 49.218750
2439, 38.352275, 46.649649, 48.263764
2440, 38.335243, 46.595810, 49.340974
2441, 38.281250, 47.656250, 49.218750
2442, 36.785128, 46.577962, 50.645797
2443, 36.718750, 47.656250, 50.781250
2444, 38.335575, 46.595875, 50.630901
2445, 38.281250, 47.656250, 50.781250
2446, 33.593750, 49.218750, 49.218750
2447, 35.156250, 49.218750, 49.218750
2448, 33.593750, 50.781250, 49.218750
2449, 35.156250, 50.781250, 49.218750
2450, 33.593750, 49.218750, 50.781250
2451, 35.156250, 49.218750, 50.781250
2452, 33.593750, 50.781250, 50.781250
2453, 35.156250, 50.781250, 50.781250
2454, 36.718750, 49.218750, 49.218750
2455, 38.281250, 49.218750, 49.218750
2456, 36.718750, 50.781250, 49.218750
2457, 38.281250, 50.781250, 49.218750
2458, 36.718750, 49.218750, 50.781250
2459, 38.281250, 49.218750, 50.781250
2460, 36.718750, 50.781250, 50.781250
2461, 38.281250, 50.781250, 50.781250
2462, 39.922535, 49.635493, 45.108007
2463, 39.920102, 50.365321, 45.131128
2464, 39.912065, 49.168018, 45.972101
2465, 39.906997, 50.824946, 45.988073
2466, 41.404631, 49.637330, 45.160352
2467, 41.399272, 50.344305, 45.177693
2468, 41.421210, 49.179118, 45.998811
2469, 41.415840, 50.803590, 46.015724
2470, 39.917633, 47.977605, 46.383256
2471, 39.887845, 47.579728, 47.634635
2472, 39.843750, 49.218750, 47.656250
2473, 41.436873, 48.001872, 46.408243
2474, 41.429311, 47.596729, 47.648565
2475, 41.406250, 49.218750, 47.656250
2476, 39.843750, 50.781250, 47.656250
2477, 41.406250, 50.781250, 47.656250
2478, 42.848161, 49.637468, 45.182683
2479, 42.831067, 50.319774, 45.194272
2480, 42.922549, 49.191654, 46.006765
2481, 42.912424, 50.782080, 46.014241
2482, 44.239669, 49.645658, 45.204267
2483, 44.180270, 50.301039, 45.223838
2484, 44.448070, 49.191162, 46.010783
2485, 44.417381, 50.791299, 46.010528
2486, 42.954035, 48.031585, 46.407070
2487, 42.971842, 47.616184, 47.649998
2488, 42.968750, 49.218750, 47.656250
2489, 44.479868, 48.078843, 46.384159
2490, 44.519350, 47.634129, 47.635279
2491, 44.531250, 49.218750, 47.656250
2492, 42.968750, 50.781250, 47.656250
2493, 44.531250, 50.781250, 47.656250
2494, 39.892624, 46.665537, 48.288624
2495, 39.880048, 46.610027, 49.350436
2496, 39.843750, 47.656250, 49.218750
2497, 41.437247, 46.686042, 48.302971
2498, 41.428230, 46.624119, 49.357962
2499, 41.406250, 47.656250, 49.218750
2500, 39.883287, 46.612488, 50.625995
2501, 39.843750, 47.656250, 50.781250
2502, 41.433684, 46.628574, 50.625313
2503, 41.406250, 47.656250, 50.781250
2504, 42.981584, 46.711300, 48.308833
2505, 42.981917, 46.647283, 49.361255
2506, 42.968750, 47.656250, 49.218750
2507, 44.531338, 46.723594, 48.296980
2508, 44.535443, 46.653324, 49.357747
2509, 44.531250, 47.656250, 49.218750
2510, 42.984254, 46.645816, 50.629504
2511, 42.968750, 47.656250, 50.781250
2512, 44.538442, 46.656403, 50.629586
2513, 44.531250, 47.656250, 50.781250
2514, 39.843750, 49.218750, 49.218750
2515, 41.406250, 49.218750, 49.218750
2516, 39.843750, 50.781250, 49.218750
2517, 41.406250, 50.781250, 49.218750
2518, 39.843750, 49.218750, 50.781250
2519, 41.406250, 49.218750, 50.781250
2520, 39.843750, 50.781250, 50.781250
2521, 41.406250, 50.781250, 50.781250
2522, 42.968750, 49.218750, 49.218750
2523, 44.531250, 49.218750, 49.218750
2524, 42.968750, 50.781250, 49.218750
2525, 44.531250, 50.781250, 49.218750
2526, 42.968750, 49.218750, 50.781250
2527, 44.531250, 49.218750, 50.781250
2528, 42.968750, 50.781250, 50.781250
2529, 44.531250, 50.781250, 50.781250
2530, 45.102713, 49.771052, 45.224638
2531, 45.104437, 50.154632, 45.224202
2532, 45.856801, 49.314842, 45.951411
2533, 45.851111, 50.624340, 45.919417
2534, 46.016282, 48.154084, 46.351385
2535, 46.076680, 47.660090, 47.617205
2536, 46.093750, 49.218750, 47.656250
2537, 47.662657, 48.173528, 46.360771
2538, 47.666897, 49.293653, 46.106052
2539, 47.657013, 47.670326, 47.614589
2540, 47.656250, 49.218750, 47.656250
2541, 46.093750, 50.781250, 47.656250
2542, 47.662855, 50.671279, 46.097072
2543, 47.656250, 50.781250, 47.656250
2544, 50.249824, 49.815154, 45.217273
2545, 51.180586, 49.667162, 45.209121
2546, 51.161170, 50.293967, 45.214323
2547, 50.246610, 50.158967, 45.219563
2548, 49.498154, 49.350058, 45.930509
2549, 50.921431, 49.194444, 45.998130
2550, 50.908574, 50.779082, 46.009035
2551, 49.474829, 50.623805, 45.938438
2552, 49.316416, 48.169875, 46.339171
2553, 49.243319, 47.668718, 47.611370
2554, 49.218750, 49.218750, 47.656250
2555, 50.866846, 48.098246, 46.374929
2556, 50.806779, 47.652530, 47.631615
2557, 50.781250, 49.218750, 47.656250
2558, 49.218750, 50.781250, 47.656250
2559, 50.781250, 50.781250, 47.656250
2560, 46.088500, 46.738928, 48.283998
2561, 46.092968, 46.660050, 49.351926
2562, 46.093750, 47.656250, 49.218750
2563, 47.656713, 46.749183, 48.276591
2564, 47.655668, 46.661452, 49.348858
2565, 47.656250, 47.656250, 49.218750
2566, 46.093586, 46.658226, 50.630698
2567, 46.093750, 47.656250, 50.781250
2568, 47.652484, 46.656261, 50.634794
2569, 47.656250, 47.656250, 50.781250
2570, 49.227817, 46.748399, 48.279504
2571, 49.219428, 46.662170, 49.352067
2572, 49.218750, 47.656250, 49.218750
2573, 50.791909, 46.745650, 48.295368
2574, 50.782173, 46.659806, 49.358729
2575, 50.781250, 47.656250, 49.218750
2576, 49.213744, 46.656491, 50.639709
2577, 49.218750, 47.656250, 50.781250
2578, 50.776653, 46.654993, 50.644831
2579, 50.781250, 47.656250, 50.781250
2580, 46.093750, 49.218750, 49.218750
2581, 47.656250, 49.218750, 49.218750
2582, 46.093750, 50.781250, 49.218750
2583, 47.656250, 50.781250, 49.218750
2584, 46.093750, 49.218750, 50.781250
2585, 47.656250, 49.218750, 50.781250
2586, 46.093750, 50.781250, 50.781250
2587, 47.656250, 50.781250, 50.781250
2588, 49.218750, 49.218750, 49.218750
2589, 50.781250, 49.218750, 49.218750
2590, 49.218750, 50.781250, 49.218750
2591, 50.781250, 50.781250, 49.218750
2592, 49.218750, 49.218750, 50.781250
2593, 50.781250, 49.218750, 50.781250
2594, 49.218750, 50.781250, 50.781250
2595, 50.781250, 50.781250, 50.781250
2596, 52.542795, 49.657503, 45.200204
2597, 52.538953, 50.324909, 45.211228
2598, 52.440551, 49.205633, 46.006862
2599, 52.434807, 50.778304, 46.018812
2600, 53.998592, 49.646317, 45.198925
2601, 53.995346, 50.341422, 45.204162
2602, 53.955063, 49.189649, 46.018014
2603, 53.946911, 50.799096, 46.021444
2604, 52.406175, 48.054025, 46.408561
2605, 52.362608, 47.630966, 47.650319
2606, 52.343750, 49.218750, 47.656250
2607, 53.938976, 48.021156, 46.431588
2608, 53.916495, 47.612182, 47.665654
2609, 53.906250, 49.218750, 47.656250
2610, 52.343750, 50.781250, 47.656250
2611, 53.906250, 50.781250, 47.656250
2612, 55.497058, 49.637290, 45.192883
2613, 55.497469, 50.349035, 45.194706
2614, 55.483468, 49.177726, 46.022378
2615, 55.480075, 50.812127, 46.019661
2616, 57.022866, 49.631272, 45.188513
2617, 57.023099, 50.353263, 45.186849
2618, 57.023728, 49.171109, 46.025495
2619, 57.022508, 50.818994, 46.018374
2620, 55.478541, 48.001107, 46.447140
2621, 55.470233, 47.602000, 47.676410
2622, 55.468750, 49.218750, 47.656250
2623, 57.020889, 47.987705, 46.451977
2624, 57.022911, 47.594277, 47.678753
2625, 57.031250, 49.218750, 47.656250
2626, 55.468750, 50.781250, 47.656250
2627, 57.031250, 50.781250, 47.656250
2628, 52.351430, 46.729686, 48.312435
2629, 52.343079, 46.657847, 49.369211
2630, 52.343750, 47.656250, 49.218750
2631, 53.907969, 46.710755, 48.326960
2632, 53.902201, 46.648804, 49.378294
2633, 53.906250, 47.656250, 49.218750
2634, 52.338581, 46.653985, 50.644646
2635, 52.343750, 47.656250, 50.781250
2636, 53.899163, 46.651649, 50.650944
2637, 53.906250, 47.656250, 50.781250
2638, 55.464436, 46.700887, 48.339562
2639, 55.461345, 46.639094, 49.381963
2640, 55.468750, 47.656250, 49.218750
2641, 57.017885, 46.693301, 48.341767
2642, 57.019584, 46.631234, 49.380309
2643, 57.031250, 47.656250, 49.218750
2644, 55.458998, 46.644484, 50.652356
2645, 55.468750, 47.656250, 50.781250
2646, 57.017134, 46.634723, 50.648069
2647, 57.031250, 47.656250, 50.781250
2648, 52.343750, 49.218750, 49.218750
2649, 53.906250, 49.218750, 49.218750
2650, 52.343750, 50.781250, 49.218750
2651, 53.906250, 50.781250, 49.218750
2652, 52.343750, 49.218750, 50.781250
2653, 53.906250, 49.218750, 50.781250
2654, 52.343750, 50.781250, 50.781250
2655, 53.906250, 50.781250, 50.781250
2656, 55.468750, 49.218750, 49.218750
2657, 57.031250, 49.218750, 49.218750
2658, 55.468750, 50.781250, 49.218750
2659, 57.031250, 50.781250, 49.218750
2660, 55.468750, 49.218750, 50.781250
2661, 57.031250, 49.218750, 50.781250
2662, 55.468750, 50.781250, 50.781250
2663, 57.031250, 50.781250, 50.781250
2664, 58.552484, 49.624851, 45.163303
2665, 58.555614, 50.358429, 45.166096
2666, 58.561597, 49.159800, 46.014562
2667, 58.564706, 50.823873, 46.009712
2668, 60.087791, 49.619848, 45.123937
2669, 60.082887, 50.371899, 45.130323
2670, 60.097318, 49.153980, 45.988161
2671, 60.101948, 50.832719, 45.988786
2672, 58.560709, 47.972750, 46.441606
2673, 58.572899, 47.583331, 47.674551
2674, 58.593750, 49.218750, 47.656250
2675, 60.096076, 47.955670, 46.410812
2676, 60.119565, 47.569069, 47.659418
2677, 60.156250, 49.218750, 47.656250
2678, 58.593750, 50.781250, 47.656250
2679, 60.156250, 50.781250, 47.656250
2680, 61.621617, 49.617205, 45.077108
2681, 61.616566, 50.399077, 45.081585
2682, 61.632080, 49.150033, 45.947585
2683, 61.641680, 50.847805, 45.950963
2684, 63.217344, 49.581830, 45.019772
2685, 63.200615, 50.457793, 45.030032
2686, 63.181317, 49.138537, 45.895610
2687, 63.180364, 50.867148, 45.904140
2688, 61.626995, 47.945563, 46.363603
2689, 61.660986, 47.557316, 47.634372
2690, 61.718750, 49.218750, 47.656250
2691, 63.191459, 47.946426, 46.267558
2692, 63.206759, 47.545150, 47.586172
2693, 63.281250, 49.218750, 47.656250
2694, 61.718750, 50.781250, 47.656250
2695, 63.281250, 50.781250, 47.656250
2696, 58.566635, 46.676598, 48.334606
2697, 58.569598, 46.620852, 49.379422
2698, 58.593750, 47.656250, 49.218750
2699, 60.105910, 46.656782, 48.323722
2700, 60.117145, 46.602468, 49.372952
2701, 60.156250, 47.656250, 49.218750
2702, 58.570430, 46.622858, 50.643403
2703, 58.593750, 47.656250, 50.781250
2704, 60.117740, 46.603312, 50.643812
2705, 60.156250, 47.656250, 50.781250
2706, 61.649169, 46.631207, 48.295790
2707, 61.670387, 46.575222, 49.363109
2708, 61.718750, 47.656250, 49.218750
2709, 63.198840, 46.602780, 48.240317
2710, 63.225593, 46.546922, 49.344961
2711, 63.281250, 47.656250, 49.218750
2712, 61.668853, 46.571057, 50.649854
2713, 61.718750, 47.656250, 50.781250
2714, 63.220871, 46.540324, 50.664533
2715, 63.281250, 47.656250, 50.781250
2716, 58.593750, 49.218750, 49.218750
2717, 60.156250, 49.218750, 49.218750
2718, 58.593750, 50.781250, 49.218750
2719, 60.156250, 50.781250, 49.218750
2720, 58.593750, 49.218750, 50.781250
2721, 60.156250, 49.218750, 50.781250
2722, 58.593750, 50.781250, 50.781250
2723, 60.156250, 50.781250, 50.781250
2724, 61.718750, 49.218750, 49.218750
2725, 63.281250, 49.218750, 49.218750
2726, 61.718750, 50.781250, 49.218750
2727, 63.281250, 50.781250, 49.218750
2728, 61.718750, 49.218750, 50.781250
2729, 63.281250, 49.218750, 50.781250
2730, 61.718750, 50.781250, 50.781250
2731, 63.281250, 50.781250, 50.781250
2732, 71.495618, 48.398734, 43.494212
2733, 72.587813, 48.168775, 43.262901
2734, 72.682663, 49.335308, 42.902031
2735, 71.263185, 49.374245, 43.407489
2736, 70.999936, 48.064581, 44.463263
2737, 72.566807, 47.660682, 44.477491
2738, 72.656250, 49.218750, 44.531250
2739, 70.959441, 49.134513, 44.355816
2740, 70.252567, 49.742267, 43.589710
2741, 71.273797, 50.597603, 43.426994
2742, 70.257187, 50.252816, 43.594470
2743, 69.606778, 49.367425, 44.446525
2744, 70.972355, 50.860605, 44.375923
2745, 69.610484, 50.635842, 44.464605
2746, 72.686476, 50.628435, 42.914554
2747, 72.656250, 50.781250, 44.531250
2748, 73.166266, 49.690664, 41.875301
2749, 73.162963, 50.280266, 41.896160
2750, 66.973495, 46.761842, 46.774147
2751, 68.065461, 46.740389, 46.766602
2752, 67.952926, 47.711851, 46.149540
2753, 66.517432, 47.706119, 46.164329
2754, 66.506410, 46.591271, 47.808061
2755, 67.958585, 46.571827, 47.823046
2756, 67.968750, 47.656250, 47.656250
2757, 66.267888, 47.493113, 47.496061
2758, 69.416743, 46.676714, 46.691567
2759, 69.421209, 47.670852, 46.059844
2760, 69.422647, 46.512663, 47.804554
2761, 69.531250, 47.656250, 47.656250
2762, 65.381301, 48.407657, 45.174257
2763, 66.511621, 48.323781, 45.158276
2764, 66.388297, 49.359551, 44.985994
2765, 64.899642, 49.393924, 45.018658
2766, 64.888572, 47.980804, 46.037677
2767, 66.406250, 49.218750, 46.093750
2768, 64.693887, 49.103895, 45.865490
2769, 64.901341, 50.651163, 45.030034
2770, 64.698931, 50.894495, 45.873608
2771, 66.386213, 50.653437, 44.992253
2772, 66.406250, 50.781250, 46.093750
2773, 64.765052, 47.534984, 47.511620
2774, 64.843750, 49.218750, 47.656250
2775, 66.406250, 49.218750, 47.656250
2776, 64.843750, 50.781250, 47.656250
2777, 66.406250, 50.781250, 47.656250
2778, 67.910211, 48.279048, 45.035452
2779, 67.916005, 49.350793, 44.831465
2780, 67.968750, 49.218750, 46.093750
2781, 69.421753, 48.204243, 44.797444
2782, 69.531250, 49.218750, 46.093750
2783, 67.919773, 50.670290, 44.847429
2784, 67.968750, 50.781250, 46.093750
2785, 69.531250, 50.781250, 46.093750
2786, 67.968750, 49.218750, 47.656250
2787, 69.531250, 49.218750, 47.656250
2788, 67.968750, 50.781250, 47.656250
2789, 69.531250, 50.781250, 47.656250
2790, 64.785304, 46.586383, 48.121303
2791, 64.786710, 46.524446, 49.309233
2792, 64.843750, 47.656250, 49.218750
2793, 66.378083, 46.499638, 49.250498
2794, 66.406250, 47.656250, 49.218750
2795, 64.788918, 46.521221, 50.691242
2796, 64.843750, 47.656250, 50.781250
2797, 66.380493, 46.504742, 50.742285
2798, 66.406250, 47.656250, 50.781250
2799, 67.912569, 46.460269, 49.246491
2800, 67.968750, 47.656250, 49.218750
2801, 69.423043, 46.400023, 49.241594
2802, 69.531250, 47.656250, 49.218750
2803, 67.914582, 46.463689, 50.744528
2804, 67.968750, 47.656250, 50.781250
2805, 69.428598, 46.404040, 50.749177
2806, 69.531250, 47.656250, 50.781250
2807, 64.843750, 49.218750, 49.218750
2808, 66.406250, 49.218750, 49.218750
2809, 64.843750, 50.781250, 49.218750
2810, 66.406250, 50.781250, 49.218750
2811, 64.843750, 49.218750, 50.781250
2812, 66.406250, 49.218750, 50.781250
2813, 64.843750, 50.781250, 50.781250
2814, 66.406250, 50.781250, 50.781250
2815, 67.968750, 49.218750, 49.218750
2816, 69.531250, 49.218750, 49.218750
2817, 67.968750, 50.781250, 49.218750
2818, 69.531250, 50.781250, 49.218750
2819, 67.968750, 49.218750, 50.781250
2820, 69.531250, 49.218750, 50.781250
2821, 67.968750, 50.781250, 50.781250
2822, 69.531250, 50.781250, 50.781250
2823, 70.894266, 46.578310, 46.530586
2824, 70.912827, 47.587114, 45.943980
2825, 70.929096, 46.428063, 47.746254
2826, 71.093750, 47.656250, 47.656250
2827, 72.550709, 46.469381, 46.151551
2828, 72.390907, 47.469212, 45.897471
2829, 72.483322, 46.298999, 47.661434
2830, 72.656250, 47.656250, 47.656250
2831, 72.964197, 46.613380, 45.003462
2832, 71.093750, 49.218750, 46.093750
2833, 72.656250, 49.218750, 46.093750
2834, 71.093750, 50.781250, 46.093750
2835, 72.656250, 50.781250, 46.093750
2836, 71.093750, 49.218750, 47.656250
2837, 72.656250, 49.218750, 47.656250
2838, 71.093750, 50.781250, 47.656250
2839, 72.656250, 50.781250, 47.656250
2840, 70.942466, 46.321678, 49.227016
2841, 71.093750, 47.656250, 49.218750
2842, 72.509603, 46.219486, 49.204805
2843, 72.656250, 47.656250, 49.218750
2844, 70.952118, 46.325962, 50.767012
2845, 71.093750, 47.656250, 50.781250
2846, 72.515553, 46.222355, 50.794673
2847, 72.656250, 47.656250, 50.781250
2848, 71.093750, 49.218750, 49.218750
2849, 72.656250, 49.218750, 49.218750
2850, 71.093750, 50.781250, 49.218750
2851, 72.656250, 50.781250, 49.218750
2852, 71.093750, 49.218750, 50.781250
2853, 72.656250, 49.218750, 50.781250
2854, 71.093750, 50.781250, 50.781250
2855, 72.656250, 50.781250, 50.781250
2856, 83.593750, 46.093750, 44.531250
2857, 83.594681, 44.893426, 46.166352
2858, 83.593750, 46.093750, 46.093750
2859, 85.156250, 46.093750, 44.531250
2860, 85.145901, 44.838634, 46.201263
2861, 85.156250, 46.093750, 46.093750
2862, 83.593750, 47.656250, 44.531250
2863, 83.593750, 47.656250, 46.093750
2864, 85.156250, 47.656250, 44.531250
2865, 85.156250, 47.656250, 46.093750
2866, 83.536481, 45.100012, 47.693109
2867, 83.593750, 46.093750, 47.656250
2868, 85.024617, 45.038232, 47.677270
2869, 85.306712, 45.882651, 47.838374
2870, 83.593750, 47.656250, 47.656250
2871, 85.156250, 47.656250, 47.656250
2872, 86.700304, 46.058033, 44.601741
2873, 86.795569, 44.977548, 46.175260
2874, 86.856673, 45.958274, 46.118036
2875, 88.294597, 46.082255, 44.452422
2876, 88.306728, 44.770981, 46.260281
2877, 88.273205, 45.894789, 45.983801
2878, 86.574017, 47.602441, 44.449974
2879, 86.619280, 47.608862, 46.259973
2880, 86.721185, 44.727572, 47.233652
2881, 86.702271, 46.071459, 47.779120
2882, 86.653307, 47.625314, 47.589755
2883, 83.593750, 49.218750, 44.531250
2884, 83.593750, 49.218750, 46.093750
2885, 85.156250, 49.218750, 44.531250
2886, 85.156250, 49.218750, 46.093750
2887, 83.593750, 50.781250, 44.531250
2888, 83.593750, 50.781250, 46.093750
2889, 85.156250, 50.781250, 44.531250
2890, 85.156250, 50.781250, 46.093750
2891, 83.593750, 49.218750, 47.656250
2892, 85.156250, 49.218750, 47.656250
2893, 83.593750, 50.781250, 47.656250
2894, 85.156250, 50.781250, 47.656250
2895, 86.649890, 49.258256, 44.459175
2896, 86.660884, 49.248709, 46.162858
2897, 87.665402, 47.962398, 44.958314
2898, 87.079485, 47.333496, 44.917517
2899, 87.035263, 48.101998, 44.326547
2900, 87.897075, 47.989427, 44.892612
2901, 87.862567, 47.233655, 44.822989
2902, 87.907676, 47.282710, 44.157549
2903, 87.859912, 47.985694, 44.133005
2904, 87.666812, 48.910151, 44.959004
2905, 87.051219, 48.780324, 44.316389
2906, 87.896707, 48.881575, 44.893672
2907, 87.863300, 48.885602, 44.133678
2908, 87.096600, 49.541123, 44.949606
2909, 87.887479, 49.629091, 44.885511
2910, 87.888605, 49.611813, 44.138590
2911, 87.667597, 47.967129, 45.672523
2912, 87.106472, 47.349428, 45.757396
2913, 87.896235, 47.998787, 45.731121
2914, 87.838763, 47.245826, 45.802541
2915, 87.661683, 48.905629, 45.666115
2916, 87.896156, 48.874953, 45.729099
2917, 87.098578, 49.539067, 45.677862
2918, 87.887811, 49.627407, 45.736817
2919, 87.040274, 48.116192, 46.323726
2920, 87.890451, 48.043330, 46.486326
2921, 87.857769, 47.266172, 46.454013
2922, 87.052686, 48.747796, 46.315046
2923, 87.890451, 48.831666, 46.486327
2924, 87.889624, 49.610877, 46.485902
2925, 87.158011, 46.480871, 44.970297
2926, 87.950346, 46.472171, 44.885820
2927, 87.227459, 46.455689, 45.622453
2928, 88.010466, 46.417950, 45.556344
2929, 86.712975, 47.688259, 42.967257
2930, 87.124280, 48.104244, 43.386485
2931, 88.223788, 47.567423, 42.867222
2932, 87.961033, 48.050301, 43.336372
2933, 87.134703, 48.774348, 43.387239
2934, 87.968082, 48.830107, 43.343324
2935, 86.725858, 49.179038, 42.974968
2936, 88.255431, 49.300661, 42.894430
2937, 86.646072, 50.745028, 44.454943
2938, 86.657574, 50.752755, 46.164049
2939, 86.658447, 49.244877, 47.586891
2940, 86.667182, 50.768689, 47.581379
2941, 83.374626, 45.215526, 49.213930
2942, 83.593750, 46.093750, 49.218750
2943, 84.607580, 45.164211, 49.251064
2944, 85.181412, 45.930858, 49.277071
2945, 83.593750, 47.656250, 49.218750
2946, 85.156250, 47.656250, 49.218750
2947, 83.373627, 45.215698, 50.791497
2948, 83.593750, 46.093750, 50.781250
2949, 84.613884, 45.157058, 50.751460
2950, 85.169773, 45.932571, 50.718691
2951, 83.593750, 47.656250, 50.781250
2952, 85.156250, 47.656250, 50.781250
2953, 87.661479, 45.682806, 48.161498
2954, 87.742075, 45.115857, 47.930180
2955, 87.208600, 45.075410, 47.558839
2956, 87.202410, 45.609266, 47.851620
2957, 88.054488, 45.678532, 48.054481
2958, 88.066280, 45.135505, 47.815686
2959, 87.900826, 44.933917, 47.286854
2960, 87.930302, 45.859439, 47.299844
2961, 87.097723, 46.392885, 48.117592
2962, 87.885733, 46.494365, 48.000209
2963, 87.843411, 46.481757, 47.259237
2964, 87.118289, 46.400621, 48.824787
2965, 87.621007, 45.748336, 48.863718
2966, 87.889473, 46.494843, 48.847554
2967, 88.085048, 45.811344, 48.872933
2968, 86.750132, 46.154681, 49.264366
2969, 87.308271, 45.646629, 49.252832
2970, 87.890625, 46.484375, 49.609375
2971, 87.989630, 45.825542, 49.580369
2972, 87.230769, 45.235710, 46.581781
2973, 87.676508, 44.665949, 47.143755
2974, 88.299230, 45.011181, 46.610612
2975, 87.259528, 45.494030, 46.576914
2976, 88.038715, 45.550179, 46.529418
2977, 86.659609, 47.626234, 49.281373
2978, 86.737792, 46.147019, 50.751875
2979, 86.660133, 47.630283, 50.715392
2980, 83.593750, 49.218750, 49.218750
2981, 85.156250, 49.218750, 49.218750
2982, 83.593750, 50.781250, 49.218750
2983, 85.156250, 50.781250, 49.218750
2984, 83.593750, 49.218750, 50.781250
2985, 85.156250, 49.218750, 50.781250
2986, 83.593750, 50.781250, 50.781250
2987, 85.156250, 50.781250, 50.781250
2988, 86.656037, 49.244635, 49.288673
2989, 87.661211, 47.968804, 48.085135
2990, 87.101501, 47.346370, 48.064538
2991, 87.052724, 48.116653, 47.439107
2992, 87.896560, 47.997924, 48.021610
2993, 87.887211, 47.244314, 48.005137
2994, 87.884042, 47.264477, 47.258766
2995, 87.890451, 48.043331, 47.263674
2996, 87.662904, 48.907216, 48.085822
2997, 87.053565, 48.755656, 47.435849
2998, 87.896160, 48.875016, 48.021132
2999, 87.890451, 48.831666, 47.263673
3000, 87.099755, 49.536765, 48.071630
3001, 87.887624, 49.628107, 48.011780
3002, 87.889624, 49.610877, 47.264098
3003, 87.661007, 47.967422, 48.790139
3004, 87.107714, 47.350993, 48.810173
3005, 87.896135, 48.000282, 48.853718
3006, 87.887264, 47.245640, 48.867127
3007, 87.663081, 48.905996, 48.790332
3008, 87.896662, 48.877516, 48.853520
3009, 87.099388, 49.536808, 48.803026
3010, 87.887530, 49.628479, 48.863893
3011, 87.055507, 48.114391, 49.434870
3012, 87.890451, 48.043330, 49.611326
3013, 87.889622, 47.264118, 49.610906
3014, 87.054614, 48.755742, 49.437509
3015, 87.890451, 48.831666, 49.611327
3016, 87.889624, 49.610877, 49.610902
3017, 86.668057, 50.770100, 49.294475
3018, 86.653486, 49.242855, 50.708416
3019, 86.666719, 50.772265, 50.702882
3020, 89.796559, 46.051286, 44.450909
3021, 89.736707, 44.885599, 46.143481
3022, 89.816215, 45.892639, 45.937162
3023, 91.353587, 46.061650, 44.461962
3024, 91.161056, 45.061902, 45.803237
3025, 91.359486, 46.070204, 46.090147
3026, 88.664729, 47.263501, 44.138501
3027, 88.610709, 47.276310, 44.904844
3028, 88.783397, 46.495126, 44.320606
3029, 88.584030, 47.061657, 44.958679
3030, 89.460268, 47.263501, 44.138501
3031, 89.511108, 47.274994, 44.901845
3032, 89.305723, 46.485457, 44.325123
3033, 89.539419, 47.060140, 44.963837
3034, 90.236798, 47.263590, 44.138590
3035, 90.254957, 47.262012, 44.882294
3036, 90.138429, 46.486223, 44.949220
3037, 88.547383, 47.253277, 45.790344
3038, 88.562039, 47.064662, 45.705258
3039, 89.600349, 47.247659, 45.798776
3040, 89.571791, 47.081125, 45.718659
3041, 90.284020, 47.247244, 45.793447
3042, 90.072194, 46.452576, 45.507556
3043, 88.537974, 47.228975, 46.581967
3044, 88.728632, 46.263360, 46.296673
3045, 89.641439, 47.207176, 46.612424
3046, 89.402150, 46.258480, 46.283069
3047, 90.291457, 47.254896, 46.464034
3048, 88.671875, 47.265625, 47.265625
3049, 88.555043, 46.564212, 47.236069
3050, 89.453125, 47.265625, 47.265625
3051, 89.627802, 46.600557, 47.212366
3052, 90.234375, 47.265625, 47.265625
3053, 90.364014, 46.405789, 47.258009
3054, 88.694815, 47.454286, 43.284589
3055, 88.380262, 46.127544, 42.995645
3056, 88.774145, 46.534989, 43.385662
3057, 89.433748, 47.454121, 43.285384
3058, 89.339168, 46.531204, 43.394993
3059, 89.893049, 47.573483, 42.875776
3060, 89.745966, 46.121056, 43.003347
3061, 88.641252, 45.702469, 47.168226
3062, 88.790748, 45.083267, 46.911183
3063, 88.562941, 45.809749, 47.531120
3064, 88.557012, 45.146585, 47.368348
3065, 89.572875, 45.678940, 47.118880
3066, 89.454398, 45.106563, 46.961591
3067, 89.564064, 45.812731, 47.427844
3068, 89.423353, 45.211533, 47.317162
3069, 90.112429, 45.395530, 46.831526
3070, 90.057319, 45.112196, 46.793723
3071, 90.162784, 45.730157, 47.364548
3072, 89.930165, 45.260243, 47.240893
3073, 88.949457, 45.081420, 46.660003
3074, 89.214844, 45.117087, 46.627080
3075, 93.052911, 46.014159, 44.473337
3076, 92.367626, 45.041801, 45.531655
3077, 92.795189, 46.064127, 45.957950
3078, 91.012901, 47.263390, 44.138282
3079, 91.789016, 47.263455, 44.138106
3080, 91.733658, 47.271676, 44.883819
3081, 90.994463, 47.262420, 44.884756
3082, 91.869878, 46.461156, 44.339773
3083, 91.701931, 47.056715, 44.948970
3084, 91.079906, 46.491851, 44.943766
3085, 92.599690, 47.261462, 44.128858
3086, 92.616975, 47.272305, 44.892836
3087, 92.585081, 46.441664, 44.315046
3088, 92.681161, 47.056180, 44.962341
3089, 93.360587, 47.264397, 44.139818
3090, 93.364686, 47.264858, 44.915918
3091, 93.473708, 46.622216, 45.106692
3092, 91.680757, 47.269395, 45.767180
3093, 90.978514, 47.257597, 45.765270
3094, 91.668323, 47.064328, 45.699589
3095, 91.073928, 46.486827, 45.643702
3096, 92.590120, 47.265018, 45.715650
3097, 92.657023, 47.032495, 45.617078
3098, 93.437246, 47.188274, 45.773201
3099, 93.315513, 46.685988, 45.479565
3100, 91.744855, 47.259550, 46.506046
3101, 91.015625, 47.265625, 46.484375
3102, 91.799759, 46.450387, 46.307808
3103, 92.608078, 47.269181, 46.363528
3104, 92.439843, 46.426219, 46.127452
3105, 93.293487, 47.157419, 46.352104
3106, 91.642923, 47.341578, 47.117455
3107, 91.052917, 47.221311, 47.286464
3108, 91.566457, 46.787190, 47.044078
3109, 91.000811, 46.577266, 47.177808
3110, 92.342687, 47.304801, 46.993363
3111, 92.222316, 46.769245, 46.858672
3112, 91.366234, 47.575713, 42.890354
3113, 91.827587, 47.451042, 43.293512
3114, 91.475634, 46.120665, 42.997590
3115, 91.874667, 46.516900, 43.381159
3116, 92.543177, 47.449022, 43.291401
3117, 92.518110, 46.503957, 43.379446
3118, 93.009552, 47.576167, 42.884380
3119, 92.900534, 46.100407, 42.980258
3120, 91.099272, 45.644101, 46.760379
3121, 91.522231, 45.989556, 46.938443
3122, 90.979119, 45.934738, 47.179876
3123, 91.460437, 46.104360, 47.087732
3124, 90.845427, 45.128487, 46.563914
3125, 94.139407, 47.264387, 44.139815
3126, 94.903572, 47.266869, 44.140426
3127, 94.929321, 47.387421, 44.936491
3128, 94.140625, 47.265625, 44.921875
3129, 94.277320, 46.157974, 44.290748
3130, 95.051559, 46.640555, 44.361722
3131, 94.924086, 46.894910, 44.944794
3132, 94.289560, 46.642823, 45.036050
3133, 95.758760, 47.577148, 44.224068
3134, 95.489779, 47.484441, 44.737561
3135, 95.550594, 46.905870, 44.321669
3136, 95.404414, 47.030345, 44.741193
3137, 94.691614, 47.442921, 45.453792
3138, 94.108254, 47.390500, 45.684190
3139, 94.682022, 47.010365, 45.385079
3140, 94.192085, 46.857237, 45.498375
3141, 94.540955, 47.550530, 42.904794
3142, 94.999294, 47.519828, 43.426894
3143, 94.665852, 46.108904, 43.137521
3144, 95.217732, 46.505283, 43.694098
3145, 95.680383, 47.595446, 43.509528
3146, 95.679670, 46.700376, 43.664000
3147, 96.181361, 47.701769, 43.174608
3148, 95.765884, 46.242620, 42.875709
3149, 96.213779, 49.367742, 43.053490
3150, 96.478812, 48.753458, 43.664023
3151, 96.432763, 48.254250, 43.649273
3152, 97.061515, 48.206281, 42.725841
3153, 97.112359, 49.222284, 42.750308
3154, 97.041099, 48.725519, 43.300839
3155, 97.013611, 48.383377, 43.285468
3156, 7.051689, 52.234530, 46.161542
3157, 6.088383, 51.795801, 45.956637
3158, 6.258496, 51.643498, 46.514471
3159, 6.207111, 51.271486, 46.532586
3160, 6.791683, 51.785598, 46.776084
3161, 6.772889, 51.252908, 46.790164
3162, 8.604039, 52.437890, 46.038119
3163, 10.130806, 52.414644, 46.034266
3164, 8.599910, 53.878594, 46.284590
3165, 7.434784, 53.454631, 46.085724
3166, 10.114627, 53.843467, 46.065980
3167, 7.314683, 51.189411, 47.064455
3168, 7.442394, 50.571539, 46.501753
3169, 7.440248, 51.084686, 47.400559
3170, 6.919585, 51.112058, 47.162878
3171, 7.012105, 50.437984, 47.025578
3172, 7.467702, 50.395769, 47.285248
3173, 8.292033, 51.248976, 47.027599
3174, 8.118558, 50.646001, 46.457465
3175, 8.221496, 51.163091, 47.520627
3176, 8.207408, 50.388293, 47.265415
3177, 8.938735, 51.175815, 46.507223
3178, 9.002762, 51.130348, 47.263338
3179, 8.985888, 50.389087, 47.264620
3180, 7.362665, 51.901418, 47.005829
3181, 7.452390, 51.884077, 47.283910
3182, 6.959122, 51.649204, 47.149946
3183, 8.296435, 51.899517, 47.021816
3184, 8.212384, 52.001221, 47.469202
3185, 8.920318, 51.938904, 46.498085
3186, 9.000313, 51.985307, 47.263405
3187, 8.122998, 52.480596, 46.539380
3188, 7.464580, 52.335575, 46.567523
3189, 8.219330, 52.678901, 47.319443
3190, 7.663121, 52.569054, 47.162812
3191, 8.827836, 52.757701, 47.331942
3192, 11.753507, 52.421200, 46.019322
3193, 13.278421, 52.297980, 46.099482
3194, 11.786385, 53.850259, 46.038254
3195, 13.234189, 54.000434, 46.151332
3196, 10.467171, 51.211022, 47.038701
3197, 9.838909, 51.197692, 46.481137
3198, 10.618309, 50.560765, 46.426852
3199, 10.499986, 51.146032, 47.271218
3200, 9.747365, 51.137149, 47.262653
3201, 9.764123, 50.389098, 47.264624
3202, 10.543334, 50.388673, 47.265451
3203, 11.404494, 51.211635, 47.030610
3204, 11.253717, 50.565408, 46.426585
3205, 11.375167, 51.147836, 47.271752
3206, 11.331670, 50.388674, 47.265451
3207, 12.028839, 51.166452, 46.466723
3208, 12.137223, 51.112933, 47.258523
3209, 12.111395, 50.388187, 47.263590
3210, 10.467608, 51.912849, 47.038956
3211, 9.838654, 51.928407, 46.482800
3212, 10.499931, 51.978937, 47.271245
3213, 9.747365, 51.987887, 47.262680
3214, 11.405372, 51.914219, 47.030963
3215, 11.375311, 51.977100, 47.271818
3216, 12.028206, 51.957481, 46.465666
3217, 12.137944, 52.013287, 47.258315
3218, 10.618163, 52.564684, 46.431378
3219, 10.543334, 52.736327, 47.265451
3220, 9.764123, 52.735902, 47.264624
3221, 11.253476, 52.558385, 46.430345
3222, 11.331670, 52.736326, 47.265451
3223, 12.111395, 52.736813, 47.263590
3224, 12.867067, 51.226690, 46.511251
3225, 12.948788, 51.215140, 47.447709
3226, 12.868113, 51.897425, 46.511915
3227, 12.949656, 51.909128, 47.448835
3228, 13.357769, 52.380694, 47.577925
3229, 10.267631, 55.060258, 46.119679
3230, 9.117840, 54.963204, 46.010379
3231, 8.919134, 54.366251, 46.811558
3232, 8.469648, 54.030545, 47.081005
3233, 8.149583, 53.600626, 46.765917
3234, 8.974229, 54.085358, 47.240172
3235, 8.507877, 53.955701, 47.209601
3236, 8.277245, 53.424477, 47.188373
3237, 8.898451, 53.531891, 47.301483
3238, 7.602859, 53.258263, 46.694361
3239, 7.772294, 53.155712, 47.115015
3240, 11.826396, 55.288538, 46.171251
3241, 13.208571, 55.155372, 46.209417
3242, 10.430950, 54.320017, 47.081599
3243, 9.763435, 54.480830, 46.898221
3244, 10.588168, 53.698660, 46.450061
3245, 10.455743, 54.303818, 47.505315
3246, 9.771398, 54.286918, 47.423874
3247, 9.699994, 53.648167, 47.349303
3248, 10.540545, 53.512015, 47.265271
3249, 11.387696, 54.266686, 47.028035
3250, 11.268104, 53.772180, 46.455229
3251, 11.409689, 54.228594, 47.266304
3252, 11.331696, 53.513686, 47.265461
3253, 11.991478, 54.265858, 46.494099
3254, 12.148329, 54.204480, 47.250222
3255, 12.111909, 53.512566, 47.263074
3256, 10.540477, 54.916720, 47.038878
3257, 9.927755, 54.909430, 46.851574
3258, 10.605811, 54.807212, 47.501962
3259, 10.039170, 54.765876, 47.342828
3260, 11.217026, 54.890174, 47.016250
3261, 11.414023, 54.999520, 47.425014
3262, 12.007387, 54.987968, 46.479693
3263, 12.026287, 55.055006, 47.470119
3264, 11.190987, 55.118733, 46.688973
3265, 12.117023, 55.322531, 47.218879
3266, 11.575376, 55.274353, 47.213352
3267, 10.652217, 54.931064, 46.586109
3268, 9.254948, 54.872976, 46.653289
3269, 12.867900, 54.337618, 46.525565
3270, 12.903903, 54.294884, 47.542574
3271, 13.332680, 53.884942, 47.587863
3272, 12.870047, 54.851462, 46.530529
3273, 12.895176, 54.859865, 47.850767
3274, 13.255623, 55.181159, 47.707906
3275, 14.843750, 52.343750, 46.093750
3276, 16.406250, 52.343750, 46.093750
3277, 14.843750, 53.906250, 46.093750
3278, 16.406250, 53.906250, 46.093750
3279, 14.843750, 52.343750, 47.656250
3280, 16.406250, 52.343750, 47.656250
3281, 14.843750, 53.906250, 47.656250
3282, 16.406250, 53.906250, 47.656250
3283, 14.844016, 55.148163, 46.202314
3284, 16.396931, 55.073966, 46.153378
3285, 14.888069, 54.952874, 47.719333
3286, 16.442072, 54.893784, 47.675285
3287, 14.843750, 52.343750, 49.218750
3288, 13.342686, 52.366822, 49.292244
3289, 12.103465, 51.116603, 48.017188
3290, 12.112626, 50.370529, 48.009799
3291, 12.331930, 51.088603, 48.083558
3292, 12.900426, 50.459023, 48.074771
3293, 12.103442, 52.008418, 48.017165
3294, 12.331614, 52.036645, 48.083664
3295, 12.112678, 52.754454, 48.009707
3296, 12.899524, 52.665172, 48.075674
3297, 12.103941, 51.123186, 48.855445
3298, 12.112358, 50.371870, 48.863210
3299, 12.338006, 51.093665, 48.790904
3300, 12.900464, 50.462449, 48.803737
3301, 12.103945, 52.001809, 48.855556
3302, 12.336252, 52.032347, 48.789954
3303, 12.112398, 52.753084, 48.863371
3304, 12.896974, 52.661171, 48.803210
3305, 12.109549, 51.168334, 49.611327
3306, 12.110376, 50.389123, 49.610902
3307, 12.948364, 51.246846, 49.432657
3308, 12.109549, 51.956666, 49.611327
3309, 12.948976, 51.878111, 49.432603
3310, 12.110376, 52.735877, 49.610902
3311, 16.406250, 52.343750, 49.218750
3312, 14.843750, 53.906250, 49.218750
3313, 13.318217, 53.866940, 49.295301
3314, 16.406250, 53.906250, 49.218750
3315, 14.843750, 52.343750, 50.781250
3316, 13.343629, 52.366560, 50.707976
3317, 16.406250, 52.343750, 50.781250
3318, 14.843750, 53.906250, 50.781250
3319, 13.317775, 53.865796, 50.705208
3320, 16.406250, 53.906250, 50.781250
3321, 14.989298, 54.789848, 49.240958
3322, 13.588316, 54.787889, 49.252266
3323, 12.100938, 54.215471, 48.005206
3324, 12.113833, 53.490329, 48.000891
3325, 12.320633, 54.195420, 48.077618
3326, 12.892626, 53.590854, 48.071894
3327, 11.906696, 54.828037, 48.197222
3328, 12.237047, 54.768991, 48.251844
3329, 11.895955, 54.278091, 48.921720
3330, 12.112129, 53.496361, 48.862833
3331, 12.338929, 54.202335, 48.798455
3332, 12.887637, 53.575572, 48.808119
3333, 11.939296, 54.741976, 48.845548
3334, 12.299116, 54.772588, 48.830317
3335, 12.006376, 54.296365, 49.629556
3336, 12.110387, 53.514099, 49.610913
3337, 12.873278, 54.382208, 49.393561
3338, 12.183025, 54.728950, 49.573226
3339, 12.861816, 54.822362, 49.318050
3340, 16.532639, 54.778096, 49.203970
3341, 14.990487, 54.782272, 50.775803
3342, 13.589940, 54.787600, 50.769493
3343, 16.535765, 54.769958, 50.803008
3344, 27.448166, 51.787030, 43.317088
3345, 27.418849, 52.333412, 44.498719
3346, 28.518770, 51.579178, 43.534360
3347, 28.994886, 51.921507, 44.485330
3348, 27.596079, 52.520089, 45.890861
3349, 29.070532, 52.407860, 45.949429
3350, 27.028625, 53.369144, 45.000970
3351, 27.429356, 53.526056, 46.136099
3352, 27.343750, 52.343750, 47.656250
3353, 28.906250, 52.343750, 47.656250
3354, 27.493981, 53.699117, 47.652379
3355, 29.061577, 53.410000, 46.522406
3356, 29.052516, 53.559248, 47.731330
3357, 30.569319, 51.797586, 44.809065
3358, 30.543978, 52.336609, 46.067191
3359, 32.094065, 51.722383, 45.026805
3360, 31.985168, 52.310672, 46.137884
3361, 30.468750, 52.343750, 47.656250
3362, 32.203990, 52.529656, 47.482943
3363, 30.451849, 53.315000, 46.679620
3364, 30.533035, 53.472120, 47.777878
3365, 31.523271, 53.275729, 46.730383
3366, 31.950954, 53.443721, 47.769031
3367, 27.343750, 52.343750, 49.218750
3368, 28.906250, 52.343750, 49.218750
3369, 27.477239, 53.776521, 49.195224
3370, 29.051409, 53.662384, 49.215266
3371, 27.343750, 52.343750, 50.781250
3372, 28.906250, 52.343750, 50.781250
3373, 27.477198, 53.781794, 50.784491
3374, 29.056200, 53.666006, 50.758840
3375, 30.468750, 52.343750, 49.218750
3376, 32.031250, 52.343750, 49.218750
3377, 30.571871, 53.585191, 49.228124
3378, 32.094357, 53.530769, 49.240694
3379, 30.468750, 52.343750, 50.781250
3380, 32.031250, 52.343750, 50.781250
3381, 30.585190, 53.583488, 50.744782
3382, 32.107282, 53.525611, 50.749891
3383, 33.540249, 51.605478, 45.106738
3384, 33.628896, 52.033368, 46.030002
3385, 34.657204, 51.556858, 45.139973
3386, 35.133094, 51.955849, 46.000902
3387, 33.696015, 52.478913, 47.499343
3388, 35.223737, 52.440006, 47.522065
3389, 36.819146, 52.027247, 46.248665
3390, 36.785118, 52.437328, 47.586467
3391, 38.377871, 52.032110, 46.351655
3392, 38.333832, 52.430743, 47.626592
3393, 33.593750, 52.343750, 49.218750
3394, 35.156250, 52.343750, 49.218750
3395, 33.675937, 53.432751, 48.104670
3396, 33.667208, 53.487259, 49.322668
3397, 35.251342, 53.395825, 48.211038
3398, 35.227627, 53.447212, 49.351291
3399, 33.593750, 52.343750, 50.781250
3400, 35.156250, 52.343750, 50.781250
3401, 33.645400, 53.475920, 50.770396
3402, 35.225126, 53.434935, 50.708636
3403, 36.718750, 52.343750, 49.218750
3404, 38.281250, 52.343750, 49.218750
3405, 36.801231, 53.371869, 48.264118
3406, 36.781102, 53.420393, 49.360990
3407, 38.340658, 53.354414, 48.293497
3408, 38.326137, 53.404819, 49.363817
3409, 36.718750, 52.343750, 50.781250
3410, 38.281250, 52.343750, 50.781250
3411, 36.782063, 53.408429, 50.669062
3412, 38.326880, 53.393665, 50.647867
3413, 39.907397, 52.011966, 46.405495
3414, 39.879957, 52.415791, 47.650892
3415, 41.428221, 51.980303, 46.428030
3416, 41.423559, 52.396572, 47.659592
3417, 42.945292, 51.946548, 46.416189
3418, 42.968626, 52.379664, 47.652435
3419, 44.465898, 51.900480, 46.383776
3420, 44.515871, 52.359477, 47.634918
3421, 39.843750, 52.343750, 49.218750
3422, 41.406250, 52.343750, 49.218750
3423, 39.884377, 53.334591, 48.308297
3424, 39.873850, 53.390536, 49.363469
3425, 41.431959, 53.311199, 48.314317
3426, 41.426240, 53.369581, 49.364726
3427, 39.843750, 52.343750, 50.781250
3428, 41.406250, 52.343750, 50.781250
3429, 39.873864, 53.377561, 50.634715
3430, 41.426115, 53.362260, 50.627827
3431, 42.968750, 52.343750, 49.218750
3432, 44.531250, 52.343750, 49.218750
3433, 42.980005, 53.293913, 48.309162
3434, 42.980540, 53.356794, 49.362057
3435, 44.532374, 53.280173, 48.297970
3436, 44.537076, 53.353790, 49.358697
3437, 42.968750, 52.343750, 50.781250
3438, 44.531250, 52.343750, 50.781250
3439, 42.980452, 53.351666, 50.623575
3440, 44.535942, 53.345746, 50.625227
3441, 46.007411, 51.814406, 46.334006
3442, 46.075562, 52.331547, 47.615623
3443, 47.659062, 51.796976, 46.348243
3444, 47.658986, 52.321800, 47.613791
3445, 49.312026, 51.806883, 46.340621
3446, 49.242912, 52.327017, 47.618396
3447, 50.860603, 51.884905, 46.385791
3448, 50.806164, 52.343435, 47.639287
3449, 46.093750, 52.343750, 49.218750
3450, 47.656250, 52.343750, 49.218750
3451, 46.092509, 53.257830, 48.286241
3452, 46.096834, 53.341024, 49.356003
3453, 47.661425, 53.247930, 48.283823
3454, 47.658493, 53.339055, 49.357479
3455, 46.093750, 52.343750, 50.781250
3456, 47.656250, 52.343750, 50.781250
3457, 46.093626, 53.337235, 50.630313
3458, 47.653564, 53.336601, 50.639473
3459, 49.218750, 52.343750, 49.218750
3460, 50.781250, 52.343750, 49.218750
3461, 49.231496, 53.248771, 48.291268
3462, 49.222906, 53.337049, 49.361154
3463, 50.795765, 53.250328, 48.307434
3464, 50.786436, 53.329519, 49.369598
3465, 49.218750, 52.343750, 50.781250
3466, 50.781250, 52.343750, 50.781250
3467, 49.216625, 53.333409, 50.647254
3468, 50.781308, 53.327861, 50.651957
3469, 52.398937, 51.931729, 46.416262
3470, 52.361706, 52.360769, 47.656677
3471, 53.934736, 51.968071, 46.433751
3472, 53.913373, 52.380120, 47.663754
3473, 55.474351, 51.991935, 46.436910
3474, 55.467759, 52.396631, 47.665446
3475, 57.019175, 52.002556, 46.437715
3476, 57.022710, 52.400134, 47.669304
3477, 52.343750, 52.343750, 49.218750
3478, 53.906250, 52.343750, 49.218750
3479, 52.352308, 53.256702, 48.320193
3480, 52.345867, 53.329478, 49.374344
3481, 53.906858, 53.276181, 48.322073
3482, 53.904823, 53.334880, 49.375176
3483, 52.343750, 52.343750, 50.781250
3484, 53.906250, 52.343750, 50.781250
3485, 52.343592, 53.322459, 50.655658
3486, 53.905020, 53.323242, 50.655091
3487, 55.468750, 52.343750, 49.218750
3488, 57.031250, 52.343750, 49.218750
3489, 55.464077, 53.289772, 48.324997
3490, 55.464300, 53.343469, 49.375386
3491, 57.020385, 53.294758, 48.328956
3492, 57.022455, 53.347600, 49.374287
3493, 55.468750, 52.343750, 50.781250
3494, 57.031250, 52.343750, 50.781250
3495, 55.466243, 53.331356, 50.650127
3496, 57.024837, 53.344346, 50.641334
3497, 58.561360, 52.008825, 46.435832
3498, 58.575460, 52.399995, 47.669498
3499, 60.100345, 52.021121, 46.411435
3500, 60.123754, 52.410133, 47.659435
3501, 61.638552, 52.034928, 46.364354
3502, 61.669941, 52.424402, 47.636842
3503, 63.200409, 52.032213, 46.268509
3504, 63.221582, 52.437855, 47.595279
3505, 58.593750, 52.343750, 49.218750
3506, 60.156250, 52.343750, 49.218750
3507, 58.573802, 53.295254, 48.324986
3508, 58.576917, 53.355774, 49.371163
3509, 60.117991, 53.310336, 48.320404
3510, 60.126778, 53.369755, 49.370153
3511, 58.593750, 52.343750, 50.781250
3512, 60.156250, 52.343750, 50.781250
3513, 58.578808, 53.356042, 50.638095
3514, 60.127455, 53.369045, 50.638784
3515, 61.718750, 52.343750, 49.218750
3516, 63.281250, 52.343750, 49.218750
3517, 61.665383, 53.333893, 48.300327
3518, 61.678493, 53.392500, 49.363329
3519, 63.202019, 53.363361, 48.272258
3520, 63.220978, 53.418312, 49.359926
3521, 61.718750, 52.343750, 50.781250
3522, 63.281250, 52.343750, 50.781250
3523, 61.675429, 53.391483, 50.646349
3524, 63.224467, 53.417743, 50.667034
3525, 72.600086, 51.792673, 43.315062
3526, 71.516249, 51.575317, 43.531554
3527, 72.592123, 52.329102, 44.508411
3528, 71.029474, 51.919205, 44.504287
3529, 66.486652, 51.621070, 45.152802
3530, 65.381581, 51.580689, 45.185565
3531, 66.389811, 52.039212, 46.055160
3532, 64.881232, 51.962461, 46.024379
3533, 64.783932, 52.446756, 47.529683
3534, 66.313874, 52.486622, 47.507770
3535, 67.926603, 51.729664, 45.070654
3536, 68.036147, 52.315569, 46.161952
3537, 69.447750, 51.800806, 44.838113
3538, 69.474915, 52.346787, 46.083860
3539, 67.809840, 52.536793, 47.489691
3540, 69.531250, 52.343750, 47.656250
3541, 69.577104, 53.337766, 46.696442
3542, 68.500345, 53.290455, 46.755454
3543, 69.485937, 53.487312, 47.788570
3544, 68.059269, 53.443495, 47.796111
3545, 64.843750, 52.343750, 49.218750
3546, 66.406250, 52.343750, 49.218750
3547, 64.755028, 53.398729, 48.218485
3548, 64.770221, 53.450059, 49.351220
3549, 66.331019, 53.438670, 48.116389
3550, 66.335229, 53.489017, 49.324635
3551, 64.843750, 52.343750, 50.781250
3552, 66.406250, 52.343750, 50.781250
3553, 64.777044, 53.444848, 50.707479
3554, 66.359088, 53.477018, 50.766868
3555, 67.968750, 52.343750, 49.218750
3556, 69.531250, 52.343750, 49.218750
3557, 67.915484, 53.534484, 49.247050
3558, 69.438792, 53.595606, 49.231408
3559, 67.968750, 52.343750, 50.781250
3560, 69.531250, 52.343750, 50.781250
3561, 67.900004, 53.525570, 50.749882
3562, 69.425643, 53.590688, 50.747166
3563, 70.944572, 52.413994, 45.959240
3564, 72.413612, 52.517251, 45.902679
3565, 71.093750, 52.343750, 47.656250
3566, 72.656250, 52.343750, 47.656250
3567, 70.957036, 53.421512, 46.534519
3568, 70.966589, 53.570146, 47.737475
3569, 72.577887, 53.512721, 46.156613
3570, 72.515390, 53.693376, 47.656430
3571, 72.971922, 53.349238, 45.010866
3572, 71.093750, 52.343750, 49.218750
3573, 72.656250, 52.343750, 49.218750
3574, 70.961681, 53.673301, 49.217438
3575, 72.533370, 53.776814, 49.194822
3576, 71.093750, 52.343750, 50.781250
3577, 72.656250, 52.343750, 50.781250
3578, 70.955391, 53.669871, 50.760243
3579, 72.533042, 53.775245, 50.785503
3580, 83.593750, 52.343750, 44.531250
3581, 83.593750, 52.343750, 46.093750
3582, 85.156250, 52.343750, 44.531250
3583, 85.220268, 52.370513, 46.132458
3584, 83.593750, 53.906250, 44.531250
3585, 83.641390, 53.983847, 46.140919
3586, 85.156250, 53.906250, 44.531250
3587, 85.069953, 53.842586, 46.011923
3588, 83.585611, 52.337988, 47.681480
3589, 85.121995, 52.268758, 47.573658
3590, 83.521315, 53.875746, 47.582776
3591, 86.630562, 52.391616, 44.454378
3592, 86.638068, 52.369622, 46.155188
3593, 87.667668, 51.089104, 44.958464
3594, 87.097434, 50.458882, 44.950144
3595, 87.051976, 51.217661, 44.322534
3596, 87.896545, 51.116597, 44.892217
3597, 87.887374, 50.370542, 44.884833
3598, 87.888605, 50.388187, 44.138590
3599, 87.862982, 51.113728, 44.133600
3600, 87.670247, 52.036300, 44.959124
3601, 87.049678, 51.904521, 44.321174
3602, 87.897467, 52.013041, 44.893020
3603, 87.858517, 52.016995, 44.132629
3604, 87.078453, 52.660435, 44.907973
3605, 87.867956, 52.762538, 44.836645
3606, 87.907673, 52.717280, 44.157547
3607, 87.662569, 51.093771, 45.665462
3608, 87.098358, 50.462332, 45.678209
3609, 87.896053, 51.123143, 45.730580
3610, 87.887644, 50.371855, 45.738197
3611, 87.660274, 52.030351, 45.674014
3612, 87.896054, 52.005002, 45.734062
3613, 87.082811, 52.664592, 45.726065
3614, 87.842505, 52.759050, 45.810967
3615, 87.056355, 51.252340, 46.310114
3616, 87.890451, 51.168334, 46.486327
3617, 87.889624, 50.389123, 46.485902
3618, 87.049491, 51.882307, 46.295230
3619, 87.890451, 51.956670, 46.486326
3620, 87.838460, 52.732916, 46.433668
3621, 86.719933, 50.823072, 42.975859
3622, 87.133238, 51.226609, 43.388172
3623, 88.255247, 50.698888, 42.892453
3624, 87.967241, 51.169305, 43.342494
3625, 87.133683, 51.895289, 43.387409
3626, 87.961145, 51.951033, 43.335396
3627, 86.715286, 52.305293, 42.970341
3628, 88.223217, 52.432535, 42.866258
3629, 87.130380, 53.478080, 44.953609
3630, 86.740242, 53.866732, 44.593582
3631, 87.962577, 53.508864, 44.901571
3632, 88.307596, 53.913684, 44.458990
3633, 87.146747, 53.487914, 45.614637
3634, 88.050846, 53.571264, 45.552465
3635, 86.767003, 53.876285, 46.024412
3636, 88.292898, 54.120212, 45.955264
3637, 86.698061, 52.307213, 47.530431
3638, 83.669523, 55.130982, 46.184826
3639, 85.052423, 55.322477, 46.156113
3640, 83.615289, 55.183596, 47.647876
3641, 86.771157, 55.280880, 46.137787
3642, 88.320578, 55.338079, 46.241834
3643, 85.462429, 54.302628, 47.088255
3644, 84.879364, 54.281699, 46.489185
3645, 85.560239, 53.745528, 46.428029
3646, 85.459002, 54.242672, 47.268485
3647, 84.720464, 54.200614, 47.249190
3648, 84.778651, 53.528587, 47.278516
3649, 85.539015, 53.513104, 47.263455
3650, 86.416092, 54.307635, 47.089131
3651, 86.301775, 53.732580, 46.428629
3652, 86.411086, 54.249045, 47.269904
3653, 86.335264, 53.513150, 47.263838
3654, 87.019824, 54.341156, 46.496694
3655, 87.140205, 54.241877, 47.258959
3656, 87.111498, 53.513792, 47.263899
3657, 85.484000, 54.929003, 47.005732
3658, 84.878282, 55.022550, 46.464227
3659, 85.556866, 55.113561, 47.466581
3660, 84.832555, 55.129157, 47.456768
3661, 86.389131, 54.933606, 47.004760
3662, 86.342739, 55.102321, 47.432892
3663, 86.985878, 54.996810, 46.488464
3664, 87.091455, 55.114950, 47.297166
3665, 85.680131, 55.113635, 46.635292
3666, 85.556432, 55.351349, 47.148295
3667, 84.776084, 55.374953, 47.184229
3668, 86.173029, 55.120601, 46.633602
3669, 86.275502, 55.371655, 47.092671
3670, 86.942811, 55.441782, 46.879575
3671, 84.012180, 54.341185, 46.514798
3672, 83.977954, 54.314995, 47.525993
3673, 84.002223, 54.858400, 46.508152
3674, 83.997284, 54.894868, 47.817832
3675, 85.598628, 52.743711, 46.510349
3676, 85.575646, 52.670450, 47.455872
3677, 86.261983, 52.748224, 46.516047
3678, 86.280898, 52.668900, 47.431054
3679, 83.592099, 52.338498, 49.191881
3680, 85.143437, 52.277632, 49.296151
3681, 83.534728, 53.873551, 49.293580
3682, 83.592199, 52.338574, 50.807779
3683, 85.145102, 52.276909, 50.703283
3684, 83.534126, 53.874054, 50.705658
3685, 86.695574, 52.316892, 49.338762
3686, 87.664310, 51.089905, 48.084749
3687, 87.108703, 50.466133, 48.067224
3688, 87.054083, 51.232164, 47.447579
3689, 87.896129, 51.123204, 48.019662
3690, 87.887575, 50.371636, 48.010741
3691, 87.889624, 50.389123, 47.264098
3692, 87.890451, 51.168334, 47.263673
3693, 87.663981, 52.030805, 48.085625
3694, 87.050007, 51.874426, 47.418039
3695, 87.896339, 52.000293, 48.020864
3696, 87.890494, 51.955964, 47.264060
3697, 87.075964, 52.702514, 48.087509
3698, 87.889148, 52.747091, 48.026004
3699, 87.889826, 52.735573, 47.264406
3700, 87.664184, 51.089708, 48.790248
3701, 87.108486, 50.465799, 48.807363
3702, 87.896151, 51.123193, 48.855246
3703, 87.887573, 50.371623, 48.864246
3704, 87.665189, 52.031762, 48.788769
3705, 87.896353, 52.000349, 48.853952
3706, 87.074297, 52.699627, 48.789657
3707, 87.889211, 52.746644, 48.848327
3708, 87.052790, 51.230834, 49.426832
3709, 87.890451, 51.168334, 49.611327
3710, 87.889624, 50.389123, 49.610902
3711, 87.053237, 51.876213, 49.457325
3712, 87.890494, 51.955959, 49.610943
3713, 87.889828, 52.735573, 49.610591
3714, 87.123814, 53.513886, 48.023363
3715, 87.890625, 53.515625, 48.046875
3716, 87.802110, 53.525359, 47.241393
3717, 87.122065, 53.514144, 48.848983
3718, 87.890625, 53.515625, 48.828125
3719, 87.110573, 53.514828, 49.610591
3720, 87.890625, 53.515625, 49.609375
3721, 85.488210, 53.521513, 48.014111
3722, 84.743925, 53.487171, 47.966537
3723, 85.459688, 53.296341, 48.080684
3724, 84.832791, 52.722220, 48.037306
3725, 86.382035, 53.522006, 48.018782
3726, 86.411285, 53.293827, 48.082578
3727, 85.496640, 53.521121, 48.857176
3728, 84.743578, 53.491376, 48.903942
3729, 85.464238, 53.289188, 48.791466
3730, 84.841531, 52.724862, 48.837721
3731, 86.372783, 53.520809, 48.854627
3732, 86.407871, 53.289306, 48.789881
3733, 85.543330, 53.515451, 49.611326
3734, 84.763396, 53.513286, 49.612148
3735, 85.610710, 52.671837, 49.420735
3736, 86.330959, 53.515494, 49.610943
3737, 86.243050, 52.674989, 49.455637
3738, 83.971768, 53.591099, 48.043150
3739, 84.010796, 52.761282, 48.080692
3740, 83.975930, 53.584377, 48.832535
3741, 84.012762, 52.760298, 48.794691
3742, 86.691253, 52.314493, 50.658105
3743, 83.241995, 54.817888, 49.203660
3744, 84.547826, 54.196156, 48.076643
3745, 84.774449, 54.218582, 48.006399
3746, 84.614052, 54.893597, 48.256299
3747, 84.987144, 54.941040, 48.224858
3748, 84.545936, 54.200386, 48.800392
3749, 84.775180, 54.230354, 48.860408
3750, 84.554485, 54.894410, 48.824995
3751, 84.988040, 54.872159, 48.901739
3752, 84.005501, 54.381690, 49.393535
3753, 84.764823, 54.284318, 49.615817
3754, 84.039130, 54.908870, 49.305427
3755, 84.884422, 54.855793, 49.581115
3756, 83.242950, 54.811543, 50.794729
3757, 89.794360, 53.939671, 44.452161
3758, 89.809044, 54.110458, 45.927996
3759, 89.698107, 55.235266, 46.143363
3760, 88.585393, 52.939123, 44.958543
3761, 88.780305, 53.504939, 44.321775
3762, 88.613501, 52.724208, 44.903893
3763, 88.664729, 52.736499, 44.138501
3764, 89.538120, 52.940821, 44.964334
3765, 89.313193, 53.509558, 44.325725
3766, 89.510944, 52.725213, 44.901744
3767, 89.460268, 52.736499, 44.138501
3768, 90.134886, 53.511598, 44.945265
3769, 90.254544, 52.737788, 44.883009
3770, 90.237094, 52.736609, 44.138281
3771, 88.568611, 52.934736, 45.701615
3772, 88.546296, 52.747852, 45.789138
3773, 89.565795, 52.925476, 45.708966
3774, 89.591609, 52.751661, 45.795791
3775, 90.064434, 53.541856, 45.502427
3776, 90.280539, 52.752119, 45.789620
3777, 88.732580, 53.761249, 46.271261
3778, 88.525476, 52.777560, 46.589703
3779, 89.404706, 53.763862, 46.262611
3780, 89.644551, 52.792218, 46.604954
3781, 90.280996, 52.740906, 46.462293
3782, 88.546650, 53.430823, 47.231465
3783, 88.671875, 52.734375, 47.265625
3784, 89.622492, 53.414398, 47.217927
3785, 89.453125, 52.734375, 47.265625
3786, 90.338673, 53.582468, 47.283765
3787, 90.234375, 52.734375, 47.265625
3788, 88.381876, 53.872769, 42.996896
3789, 88.774836, 53.464330, 43.387016
3790, 88.695368, 52.545259, 43.285235
3791, 89.341207, 53.468169, 43.393849
3792, 89.432710, 52.545297, 43.285694
3793, 89.744286, 53.878525, 43.003375
3794, 89.892712, 52.427352, 42.874908
3795, 91.429501, 53.967127, 44.536284
3796, 91.402683, 53.910592, 46.097654
3797, 90.843091, 55.039186, 45.903087
3798, 88.584852, 54.345683, 47.109295
3799, 88.047604, 54.458238, 46.608399
3800, 88.562952, 54.197462, 47.536533
3801, 87.865324, 54.219919, 47.255510
3802, 89.575755, 54.353013, 47.091412
3803, 89.559159, 54.218739, 47.430367
3804, 90.099918, 54.615754, 46.830816
3805, 90.139755, 54.286198, 47.345960
3806, 88.729936, 55.118497, 46.928481
3807, 88.260859, 55.001541, 46.700557
3808, 88.542844, 54.909153, 47.373400
3809, 87.813204, 55.091965, 47.265453
3810, 89.447966, 55.067821, 46.914389
3811, 89.407487, 54.856187, 47.297597
3812, 90.017462, 54.959537, 46.765801
3813, 89.905177, 54.801290, 47.218371
3814, 88.911868, 55.174487, 46.627088
3815, 89.227924, 55.151234, 46.595462
3816, 87.713115, 55.500169, 46.901380
3817, 91.706992, 52.953333, 44.959909
3818, 91.116529, 53.515210, 44.976138
3819, 91.925463, 53.553393, 44.387873
3820, 91.734926, 52.730957, 44.881879
3821, 90.991192, 52.742313, 44.863020
3822, 91.006314, 52.741344, 44.131666
3823, 91.772179, 52.738152, 44.132588
3824, 92.685053, 52.916754, 44.949005
3825, 92.576219, 53.554013, 44.344518
3826, 92.634157, 52.726685, 44.879105
3827, 92.591274, 52.738351, 44.133888
3828, 93.479631, 53.353379, 45.129102
3829, 93.070783, 53.992149, 44.513024
3830, 93.371519, 52.736520, 44.909554
3831, 93.360587, 52.735603, 44.139818
3832, 91.632279, 52.923154, 45.708291
3833, 91.076718, 53.500007, 45.634072
3834, 91.636780, 52.723944, 45.765763
3835, 90.969921, 52.745486, 45.776792
3836, 92.663996, 52.968072, 45.636944
3837, 92.579809, 52.734228, 45.704921
3838, 93.321741, 53.231719, 45.533554
3839, 93.437460, 52.756732, 45.752684
3840, 91.784078, 53.503064, 46.322336
3841, 91.662968, 52.738568, 46.510303
3842, 90.997909, 52.725860, 46.437677
3843, 92.492637, 53.484360, 46.146061
3844, 92.612466, 52.700598, 46.382801
3845, 92.860693, 53.803801, 45.993697
3846, 93.284952, 52.741907, 46.323016
3847, 91.495705, 53.214873, 47.076205
3848, 90.918185, 53.382847, 47.253409
3849, 91.492400, 52.634583, 47.206912
3850, 90.923948, 52.854388, 47.266335
3851, 92.236764, 53.178100, 46.871327
3852, 92.325885, 52.669897, 46.996205
3853, 91.478196, 53.885768, 43.001838
3854, 91.892483, 53.485357, 43.386701
3855, 91.361983, 52.425419, 42.886496
3856, 91.825039, 52.548163, 43.294008
3857, 92.511920, 53.490839, 43.382357
3858, 92.544511, 52.549229, 43.292851
3859, 92.898863, 53.895412, 42.970831
3860, 93.009370, 52.424159, 42.883172
3861, 91.532665, 54.047160, 46.939062
3862, 91.125841, 54.399531, 46.761333
3863, 91.438734, 53.898484, 47.114448
3864, 90.963844, 54.073977, 47.182244
3865, 90.727846, 54.940774, 46.565111
3866, 96.214330, 50.642397, 43.052978
3867, 96.177990, 52.309457, 43.160177
3868, 96.436808, 51.762320, 43.627003
3869, 96.479920, 51.263299, 43.651784
3870, 97.111733, 50.792815, 42.740193
3871, 97.051415, 51.806290, 42.703140
3872, 96.998403, 51.632033, 43.256227
3873, 97.030963, 51.290554, 43.279213
3874, 94.916587, 53.096935, 44.945922
3875, 94.277604, 53.337713, 45.046768
3876, 94.289570, 53.846855, 44.294722
3877, 95.049870, 53.363848, 44.362523
3878, 94.926684, 52.604158, 44.934358
3879, 94.140625, 52.734375, 44.921875
3880, 94.139408, 52.735613, 44.139815
3881, 94.904451, 52.732576, 44.140511
3882, 95.407641, 52.971053, 44.735117
3883, 95.552862, 53.103681, 44.310450
3884, 95.501538, 52.517310, 44.724932
3885, 95.767000, 52.439830, 44.210053
3886, 94.667528, 52.963961, 45.390328
3887, 94.177771, 53.094692, 45.506295
3888, 94.673081, 52.534870, 45.454027
3889, 94.099368, 52.573740, 45.675484
3890, 94.667955, 53.899320, 43.140066
3891, 95.216602, 53.502032, 43.697279
3892, 94.536796, 52.447575, 42.904676
3893, 95.002022, 52.485120, 43.426791
3894, 95.678503, 53.315545, 43.651933
3895, 95.681834, 52.414701, 43.499833
3896, 95.768040, 53.768977, 42.861483
3897, 6.171533, 48.734275, 53.460777
3898, 5.981257, 49.224411, 54.002866
3899, 6.077249, 48.228101, 54.037038
3900, 6.231084, 48.364855, 53.479158
3901, 6.744404, 48.744180, 53.198325
3902, 6.940367, 49.348641, 53.827082
3903, 7.038390, 47.769730, 53.833125
3904, 6.764431, 48.214126, 53.209382
3905, 6.937193, 50.661045, 53.824451
3906, 5.965613, 50.795094, 54.007076
3907, 8.490437, 45.979520, 52.832605
3908, 9.042870, 45.779049, 52.805613
3909, 8.896655, 46.414644, 52.712848
3910, 8.272954, 46.548606, 52.803154
3911, 8.449814, 45.933636, 52.955308
3912, 8.898058, 45.630892, 53.243753
3913, 8.602667, 46.112025, 53.728444
3914, 8.134816, 46.390743, 53.232735
3915, 9.087277, 44.970677, 54.000456
3916, 10.233499, 44.620122, 54.007225
3917, 10.095534, 46.172711, 53.990519
3918, 7.409820, 46.531789, 53.925197
3919, 8.602329, 47.560069, 53.963796
3920, 10.129152, 47.586321, 53.967007
3921, 11.816928, 44.502471, 53.912118
3922, 11.776091, 46.173559, 53.986526
3923, 11.658262, 44.474255, 52.929552
3924, 12.154791, 44.545555, 52.852975
3925, 12.077425, 44.914267, 52.571047
3926, 11.431632, 44.848491, 52.620664
3927, 11.293595, 44.490886, 53.475679
3928, 12.022291, 44.966962, 53.509653
3929, 11.260000, 44.843359, 52.997684
3930, 9.839831, 45.198446, 52.791922
3931, 10.545721, 45.094797, 52.567888
3932, 10.422943, 45.678321, 52.510246
3933, 9.734878, 45.746415, 52.652425
3934, 9.892148, 44.987701, 53.331766
3935, 10.461954, 44.814324, 53.038939
3936, 10.444149, 45.655763, 52.968012
3937, 9.889156, 45.686198, 53.408802
3938, 11.373500, 45.744620, 52.729961
3939, 11.346530, 45.731225, 53.045732
3940, 12.130474, 45.759615, 52.743818
3941, 12.012796, 45.726828, 53.528047
3942, 10.541902, 46.487144, 52.734635
3943, 9.690401, 46.314813, 52.643541
3944, 10.615641, 46.285431, 53.569807
3945, 11.331686, 46.486309, 52.734542
3946, 11.229930, 46.233793, 53.564153
3947, 12.111904, 46.487431, 52.736924
3948, 10.604294, 44.441954, 53.479535
3949, 9.318236, 45.275527, 52.887090
3950, 9.240649, 45.123716, 53.307986
3951, 13.287678, 44.859182, 52.330508
3952, 12.892223, 45.133739, 52.172114
3953, 13.255188, 44.780766, 53.820150
3954, 12.874738, 45.111511, 53.465033
3955, 12.896145, 45.694128, 52.469020
3956, 12.865303, 45.662843, 53.474853
3957, 13.326879, 46.117062, 52.409135
3958, 13.252423, 46.031297, 53.867869
3959, 11.753034, 47.579189, 53.979894
3960, 13.278370, 47.702623, 53.900898
3961, 8.575474, 49.319411, 53.959779
3962, 7.645508, 47.418302, 52.827205
3963, 8.208797, 47.306020, 52.666270
3964, 8.198982, 47.990733, 52.510635
3965, 7.438807, 48.109798, 52.690084
3966, 7.449266, 47.663354, 53.424704
3967, 8.119944, 47.521392, 53.461633
3968, 8.293005, 48.097847, 52.982182
3969, 7.342927, 48.093135, 52.981677
3970, 8.816831, 47.229217, 52.655351
3971, 8.999893, 48.015277, 52.736475
3972, 8.924095, 48.060791, 53.499053
3973, 6.939279, 48.356240, 52.826945
3974, 7.432544, 48.916415, 52.572096
3975, 6.901472, 48.893361, 52.813158
3976, 7.305752, 48.815274, 52.924414
3977, 8.211491, 48.833524, 52.455233
3978, 8.293364, 48.747260, 52.976779
3979, 9.002417, 48.870061, 52.736516
3980, 8.943405, 48.826133, 53.489146
3981, 7.455894, 49.609331, 52.697516
3982, 6.998654, 49.574145, 52.946204
3983, 7.432002, 49.433542, 53.488710
3984, 8.207408, 49.611708, 52.734585
3985, 8.114240, 49.350192, 53.538662
3986, 8.985888, 49.610913, 52.735380
3987, 7.757974, 46.828071, 52.875853
3988, 7.589713, 46.736345, 53.302205
3989, 10.130112, 49.290542, 53.972074
3990, 8.576743, 50.681489, 53.961168
3991, 10.129054, 50.709887, 53.971279
3992, 11.751528, 49.295976, 53.977011
3993, 9.764123, 47.264098, 52.735376
3994, 10.543334, 47.263673, 52.734549
3995, 10.499942, 48.020930, 52.728791
3996, 9.747383, 48.012146, 52.737319
3997, 10.618660, 47.435123, 53.570446
3998, 10.468037, 48.086858, 52.961432
3999, 9.839040, 48.071573, 53.519245
4000, 11.331670, 47.263674, 52.734549
4001, 11.375245, 48.022871, 52.728220
4002, 11.253301, 47.441043, 53.570778
4003, 11.404659, 48.085911, 52.969476
4004, 12.111395, 47.263187, 52.736410
4005, 12.137580, 47.987352, 52.741573
4006, 12.028273, 48.041818, 53.534160
4007, 10.500004, 48.853961, 52.728790
4008, 9.747393, 48.862897, 52.737351
4009, 10.466570, 48.788647, 52.960345
4010, 9.839165, 48.802141, 53.517607
4011, 11.375291, 48.851959, 52.728178
4012, 11.404458, 48.788483, 52.969170
4013, 12.137532, 48.887735, 52.741546
4014, 12.028776, 48.833127, 53.532971
4015, 10.543334, 49.611327, 52.734549
4016, 9.764123, 49.610902, 52.735376
4017, 10.618584, 49.439649, 53.571524
4018, 11.331670, 49.611326, 52.734549
4019, 11.253845, 49.434589, 53.572129
4020, 12.111395, 49.611813, 52.736410
4021, 13.358920, 47.619393, 52.420893
4022, 12.949568, 48.090785, 52.551438
4023, 12.867726, 48.101763, 53.487910
4024, 12.949192, 48.784835, 52.551712
4025, 12.867484, 48.772623, 53.488464
4026, 13.352792, 49.254023, 52.420486
4027, 13.277188, 49.171945, 53.898895
4028, 11.751831, 50.705257, 53.975971
4029, 13.277155, 50.827682, 53.899152
4030, 14.911801, 45.031542, 52.291740
4031, 14.843750, 46.093750, 52.343750
4032, 12.216621, 45.281927, 50.443242
4033, 12.028454, 45.690988, 50.379302
4034, 11.912146, 45.723031, 51.088452
4035, 11.975390, 45.267983, 51.180418
4036, 12.878302, 45.205110, 50.691501
4037, 12.881154, 45.618109, 50.602668
4038, 12.338371, 45.794306, 51.205714
4039, 12.336740, 45.253898, 51.183838
4040, 12.110387, 46.485901, 50.389086
4041, 12.111926, 46.502733, 51.138610
4042, 12.887506, 46.423630, 51.190281
4043, 12.101364, 45.775841, 51.991140
4044, 11.923441, 45.198094, 51.826388
4045, 12.321483, 45.797011, 51.921803
4046, 12.274985, 45.237064, 51.766456
4047, 12.113505, 46.508382, 51.996994
4048, 12.891805, 46.407344, 51.930154
4049, 16.459961, 45.086618, 52.323753
4050, 16.406250, 46.093750, 52.343750
4051, 14.843750, 47.656250, 52.343750
4052, 16.406250, 47.656250, 52.343750
4053, 14.869793, 44.814547, 53.804246
4054, 14.843750, 46.093750, 53.906250
4055, 16.414564, 44.902076, 53.844167
4056, 16.406250, 46.093750, 53.906250
4057, 14.843750, 47.656250, 53.906250
4058, 16.406250, 47.656250, 53.906250
4059, 14.843750, 49.218750, 52.343750
4060, 12.110376, 47.264123, 50.389098
4061, 12.109549, 48.043334, 50.388673
4062, 12.103931, 47.998162, 51.144465
4063, 12.112486, 47.246543, 51.135941
4064, 12.947840, 48.121387, 50.567932
4065, 12.337091, 47.968104, 51.209946
4066, 12.896796, 47.339557, 51.196721
4067, 12.109549, 48.831666, 50.388673
4068, 12.103954, 48.876789, 51.144472
4069, 12.947952, 48.752990, 50.567884
4070, 12.337300, 48.907285, 51.208806
4071, 12.110376, 49.610877, 50.389098
4072, 12.112356, 49.628112, 51.136752
4073, 12.901328, 49.537978, 51.196780
4074, 12.103396, 47.991564, 51.982691
4075, 12.112669, 47.245557, 51.990280
4076, 12.331518, 47.963297, 51.916555
4077, 12.899502, 47.334893, 51.925259
4078, 12.103426, 48.883424, 51.982805
4079, 12.331936, 48.911639, 51.917126
4080, 12.112529, 49.629092, 51.989525
4081, 12.902277, 49.541848, 51.925175
4082, 16.406250, 49.218750, 52.343750
4083, 14.843750, 50.781250, 52.343750
4084, 13.352903, 50.745232, 52.420623
4085, 16.406250, 50.781250, 52.343750
4086, 14.843750, 49.218750, 53.906250
4087, 16.406250, 49.218750, 53.906250
4088, 14.843750, 50.781250, 53.906250
4089, 16.406250, 50.781250, 53.906250
4090, 27.439811, 46.256383, 52.347331
4091, 27.343750, 47.656250, 52.343750
4092, 29.028957, 46.406757, 52.253630
4093, 28.906250, 47.656250, 52.343750
4094, 27.449401, 46.470562, 53.862847
4095, 27.596518, 47.489479, 54.116966
4096, 29.102237, 46.570790, 53.457618
4097, 29.108575, 47.576726, 54.004779
4098, 30.565932, 46.503312, 52.187184
4099, 30.468750, 47.656250, 52.343750
4100, 32.059058, 46.576756, 52.162931
4101, 32.031250, 47.656250, 52.343750
4102, 30.594016, 46.671751, 53.288740
4103, 30.595094, 47.665667, 53.902425
4104, 31.971055, 46.750627, 53.209080
4105, 32.067972, 47.718609, 53.821105
4106, 27.343750, 49.218750, 52.343750
4107, 28.906250, 49.218750, 52.343750
4108, 27.343750, 50.781250, 52.343750
4109, 28.906250, 50.781250, 52.343750
4110, 27.343750, 49.218750, 53.906250
4111, 28.906250, 49.218750, 53.906250
4112, 27.343750, 50.781250, 53.906250
4113, 28.906250, 50.781250, 53.906250
4114, 30.468750, 49.218750, 52.343750
4115, 32.031250, 49.218750, 52.343750
4116, 30.468750, 50.781250, 52.343750
4117, 32.031250, 50.781250, 52.343750
4118, 30.468750, 49.218750, 53.906250
4119, 32.031250, 49.218750, 53.906250
4120, 30.468750, 50.781250, 53.906250
4121, 32.031250, 50.781250, 53.906250
4122, 27.058942, 46.658551, 55.044900
4123, 27.437536, 47.667211, 55.556783
4124, 27.554770, 49.054560, 55.738030
4125, 29.140527, 47.986825, 55.272995
4126, 29.052375, 49.182922, 55.636391
4127, 27.343750, 50.781250, 55.468750
4128, 29.048511, 50.896523, 55.619715
4129, 27.091987, 48.119772, 56.810632
4130, 27.368930, 49.301382, 57.022065
4131, 27.371109, 50.645900, 57.026390
4132, 28.821411, 49.675683, 56.586934
4133, 28.769920, 50.664696, 56.547295
4134, 30.620452, 48.185417, 55.101577
4135, 30.413729, 49.368422, 55.502368
4136, 32.111401, 48.268520, 54.919018
4137, 32.095313, 49.346213, 55.144182
4138, 30.395302, 50.655017, 55.534747
4139, 32.094030, 50.671723, 55.154652
4140, 29.760783, 49.832362, 56.388808
4141, 29.769005, 50.297341, 56.378721
4142, 33.514012, 46.611668, 52.182384
4143, 33.742122, 47.503650, 52.487252
4144, 35.225969, 46.617253, 51.860988
4145, 35.241566, 47.546963, 52.469352
4146, 33.053385, 46.784664, 53.199931
4147, 33.502513, 47.732920, 53.794997
4148, 36.801380, 46.631769, 51.745718
4149, 36.798241, 47.555819, 52.399182
4150, 38.354107, 46.650212, 51.696193
4151, 38.344113, 47.566792, 52.357164
4152, 33.593750, 49.218750, 52.343750
4153, 35.156250, 49.218750, 52.343750
4154, 33.593750, 50.781250, 52.343750
4155, 35.156250, 50.781250, 52.343750
4156, 33.593750, 49.218750, 53.906250
4157, 35.126702, 47.982681, 53.931896
4158, 35.325003, 49.101600, 54.113248
4159, 33.593750, 50.781250, 53.906250
4160, 35.325067, 50.895896, 54.105529
4161, 36.718750, 49.218750, 52.343750
4162, 38.281250, 49.218750, 52.343750
4163, 36.718750, 50.781250, 52.343750
4164, 38.281250, 50.781250, 52.343750
4165, 36.826295, 47.953185, 53.705741
4166, 36.843492, 49.134144, 54.077918
4167, 38.387707, 47.958394, 53.614609
4168, 38.393164, 49.154744, 54.029547
4169, 36.837630, 50.866016, 54.073845
4170, 38.389159, 50.851297, 54.020611
4171, 33.514107, 48.321085, 54.814820
4172, 33.630295, 49.351645, 55.000059
4173, 34.651380, 48.399294, 54.799328
4174, 35.130526, 49.371360, 54.961126
4175, 33.632321, 50.665872, 55.002506
4176, 35.134838, 50.645632, 54.957656
4177, 36.832008, 49.568749, 54.951007
4178, 36.828711, 50.452999, 54.949830
4179, 38.417348, 49.626426, 54.891850
4180, 38.414989, 50.405975, 54.888196
4181, 26.921094, 49.623917, 57.903931
4182, 26.938315, 50.253658, 57.902005
4183, 39.891462, 46.667555, 51.679714
4184, 39.889579, 47.578455, 52.336436
4185, 41.443609, 46.689405, 51.668407
4186, 41.437727, 47.593289, 52.327309
4187, 42.988124, 46.709300, 51.676739
4188, 42.983514, 47.612333, 52.327288
4189, 44.538859, 46.725264, 51.678425
4190, 44.529110, 47.629910, 52.332991
4191, 39.843750, 49.218750, 52.343750
4192, 41.406250, 49.218750, 52.343750
4193, 39.843750, 50.781250, 52.343750
4194, 41.406250, 50.781250, 52.343750
4195, 39.921808, 47.970380, 53.573745
4196, 39.921492, 49.168877, 53.990319
4197, 41.455921, 47.992540, 53.553351
4198, 41.447557, 49.183640, 53.961576
4199, 39.919495, 50.839341, 53.970996
4200, 41.441392, 50.827570, 53.935647
4201, 42.968750, 49.218750, 52.343750
4202, 44.531250, 49.218750, 52.343750
4203, 42.968750, 50.781250, 52.343750
4204, 44.531250, 50.781250, 52.343750
4205, 42.982710, 48.022813, 53.547940
4206, 42.961519, 49.200087, 53.947425
4207, 44.501247, 48.059727, 53.553338
4208, 44.464164, 49.218429, 53.944723
4209, 42.953744, 50.814197, 53.920195
4210, 44.456340, 50.796955, 53.924715
4211, 39.941904, 49.646245, 54.835901
4212, 39.943397, 50.392746, 54.822666
4213, 41.451427, 49.661845, 54.792252
4214, 41.447178, 50.382677, 54.766948
4215, 42.931189, 49.671775, 54.755969
4216, 42.923882, 50.372033, 54.734211
4217, 44.360465, 49.682397, 54.741855
4218, 44.353805, 50.356115, 54.722743
4219, 46.088709, 46.732883, 51.687963
4220, 46.073578, 47.646323, 52.351995
4221, 47.644918, 46.736065, 51.703412
4222, 47.627185, 47.661687, 52.374763
4223, 49.205577, 46.739204, 51.717939
4224, 49.196835, 47.673183, 52.382340
4225, 50.769027, 46.741369, 51.724404
4226, 50.766627, 47.680216, 52.385825
4227, 46.093750, 49.218750, 52.343750
4228, 47.656250, 49.218750, 52.343750
4229, 46.093750, 50.781250, 52.343750
4230, 47.656250, 50.781250, 52.343750
4231, 46.023034, 48.098855, 53.586274
4232, 45.978072, 49.211979, 53.961532
4233, 47.543359, 48.165851, 53.637293
4234, 47.382450, 49.344219, 54.021794
4235, 45.972344, 50.806357, 53.945833
4236, 47.370559, 50.668651, 54.023813
4237, 49.218750, 49.218750, 52.343750
4238, 50.781250, 49.218750, 52.343750
4239, 49.218750, 50.781250, 52.343750
4240, 50.781250, 50.781250, 52.343750
4241, 49.147603, 48.193637, 53.621289
4242, 49.113309, 49.309459, 53.838812
4243, 50.746913, 48.205608, 53.610062
4244, 50.741620, 49.301245, 53.801314
4245, 49.106418, 50.685248, 53.840061
4246, 50.742660, 50.680198, 53.797163
4247, 45.704860, 49.695671, 54.758678
4248, 45.693378, 50.337982, 54.739148
4249, 46.607536, 49.822840, 54.751580
4250, 46.596209, 50.187815, 54.749117
4251, 52.334176, 46.740729, 51.723455
4252, 52.337737, 47.681838, 52.388373
4253, 53.898532, 46.735435, 51.719410
4254, 53.908381, 47.675431, 52.386673
4255, 55.459620, 46.724785, 51.717010
4256, 55.475804, 47.656437, 52.384106
4257, 57.014622, 46.707626, 51.707559
4258, 57.027551, 47.628398, 52.373250
4259, 52.343750, 49.218750, 52.343750
4260, 53.906250, 49.218750, 52.343750
4261, 52.343750, 50.781250, 52.343750
4262, 53.906250, 50.781250, 52.343750
4263, 52.342846, 48.206581, 53.615972
4264, 52.352927, 49.300595, 53.805932
4265, 53.935775, 48.187180, 53.624929
4266, 53.975416, 49.305060, 53.846492
4267, 52.354308, 50.673339, 53.807540
4268, 53.981767, 50.672988, 53.856383
4269, 55.468750, 49.218750, 52.343750
4270, 57.031250, 49.218750, 52.343750
4271, 55.468750, 50.781250, 52.343750
4272, 57.031250, 50.781250, 52.343750
4273, 55.537879, 48.164115, 53.660828
4274, 55.701454, 49.343880, 54.043970
4275, 57.059947, 48.084447, 53.633499
4276, 57.117441, 49.216712, 54.007749
4277, 55.717135, 50.652160, 54.052500
4278, 57.129452, 50.809172, 54.007409
4279, 56.411406, 49.823297, 54.778272
4280, 57.329647, 49.697150, 54.816592
4281, 57.371647, 50.333106, 54.804478
4282, 56.437507, 50.165896, 54.782733
4283, 58.562842, 46.687377, 51.699139
4284, 58.573565, 47.600701, 52.361806
4285, 60.106397, 46.656492, 51.701486
4286, 60.117668, 47.572185, 52.362796
4287, 61.652289, 46.617732, 51.722738
4288, 61.661463, 47.546887, 52.381453
4289, 63.205016, 46.587622, 51.769513
4290, 63.211722, 47.529583, 52.421710
4291, 58.593750, 49.218750, 52.343750
4292, 60.156250, 49.218750, 52.343750
4293, 58.593750, 50.781250, 52.343750
4294, 60.156250, 50.781250, 52.343750
4295, 58.579757, 48.021037, 53.617593
4296, 58.614587, 49.202341, 54.015963
4297, 60.100340, 47.970461, 53.627583
4298, 60.116786, 49.173357, 54.032963
4299, 58.626484, 50.813161, 54.007609
4300, 60.122887, 50.834028, 54.021564
4301, 61.718750, 49.218750, 52.343750
4302, 63.281250, 49.218750, 52.343750
4303, 61.718750, 50.781250, 52.343750
4304, 63.281250, 50.781250, 52.343750
4305, 61.626816, 47.934288, 53.662570
4306, 61.627911, 49.150018, 54.064703
4307, 63.187747, 47.925200, 53.744924
4308, 63.159626, 49.129566, 54.108259
4309, 61.630230, 50.849614, 54.051432
4310, 63.162446, 50.872543, 54.092089
4311, 58.685905, 49.670997, 54.836941
4312, 58.696163, 50.359585, 54.827804
4313, 60.127806, 49.645632, 54.876722
4314, 60.130310, 50.373746, 54.869348
4315, 61.618975, 49.619908, 54.926564
4316, 61.619070, 50.392784, 54.922243
4317, 63.180615, 49.569980, 54.976345
4318, 63.181937, 50.454257, 54.970478
4319, 64.789532, 46.580085, 51.874975
4320, 64.769211, 47.527252, 52.483401
4321, 66.518807, 46.608719, 52.167126
4322, 66.275128, 47.497619, 52.486845
4323, 67.967251, 46.584165, 52.157959
4324, 67.968750, 47.656250, 52.343750
4325, 69.432727, 46.524225, 52.179227
4326, 69.531250, 47.656250, 52.343750
4327, 66.987377, 46.781278, 53.189070
4328, 68.072851, 46.762298, 53.200363
4329, 67.957296, 47.716935, 53.831028
4330, 66.526172, 47.732847, 53.793288
4331, 69.427942, 46.692792, 53.282394
4332, 69.427677, 47.673573, 53.924656
4333, 64.843750, 49.218750, 52.343750
4334, 66.406250, 49.218750, 52.343750
4335, 64.843750, 50.781250, 52.343750
4336, 66.406250, 50.781250, 52.343750
4337, 64.892523, 47.964667, 53.951332
4338, 64.683412, 49.096608, 54.133697
4339, 66.406250, 49.218750, 53.906250
4340, 64.678216, 50.900163, 54.119566
4341, 66.406250, 50.781250, 53.906250
4342, 67.968750, 49.218750, 52.343750
4343, 69.531250, 49.218750, 52.343750
4344, 67.968750, 50.781250, 52.343750
4345, 69.531250, 50.781250, 52.343750
4346, 67.968750, 49.218750, 53.906250
4347, 69.531250, 49.218750, 53.906250
4348, 67.968750, 50.781250, 53.906250
4349, 69.531250, 50.781250, 53.906250
4350, 65.384469, 48.367090, 54.813759
4351, 66.512957, 48.303522, 54.829363
4352, 66.382224, 49.341921, 55.015251
4353, 64.885534, 49.364671, 54.975698
4354, 64.874399, 50.647269, 54.967946
4355, 66.376231, 50.662771, 55.014683
4356, 67.913790, 48.266921, 54.956236
4357, 67.913627, 49.336108, 55.173540
4358, 69.426900, 48.202749, 55.186237
4359, 69.604364, 49.360875, 55.551387
4360, 67.909044, 50.664083, 55.176722
4361, 69.604580, 50.640138, 55.559173
4362, 70.936905, 46.437458, 52.241970
4363, 71.093750, 47.656250, 52.343750
4364, 72.494679, 46.306204, 52.332570
4365, 72.656250, 47.656250, 52.343750
4366, 70.904415, 46.590255, 53.448939
4367, 70.921370, 47.592424, 54.040480
4368, 72.557101, 46.484493, 53.834574
4369, 72.400591, 47.481770, 54.091733
4370, 71.093750, 49.218750, 52.343750
4371, 72.656250, 49.218750, 52.343750
4372, 71.093750, 50.781250, 52.343750
4373, 72.656250, 50.781250, 52.343750
4374, 71.093750, 49.218750, 53.906250
4375, 72.656250, 49.218750, 53.906250
4376, 71.093750, 50.781250, 53.906250
4377, 72.656250, 50.781250, 53.906250
4378, 72.948060, 46.642033, 54.975772
4379, 72.571291, 47.666373, 55.488692
4380, 71.006767, 48.069515, 55.507329
4381, 70.967085, 49.134459, 55.634057
4382, 72.656250, 49.218750, 55.468750
4383, 70.965206, 50.868429, 55.640437
4384, 72.656250, 50.781250, 55.468750
4385, 71.490371, 48.412158, 56.468160
4386, 72.567050, 48.196505, 56.672613
4387, 72.615396, 49.334185, 57.032637
4388, 71.253139, 49.379430, 56.582300
4389, 70.247793, 49.738123, 56.412963
4390, 71.253187, 50.607906, 56.588949
4391, 70.250265, 50.252806, 56.419043
4392, 72.632242, 50.651663, 57.055746
4393, 73.067285, 49.689984, 57.941177
4394, 73.079524, 50.301913, 57.964415
4395, 83.526468, 45.104156, 52.314375
4396, 83.593750, 46.093750, 52.343750
4397, 84.991040, 45.041447, 52.311974
4398, 85.297760, 45.877884, 52.145734
4399, 83.593750, 47.656250, 52.343750
4400, 85.156250, 47.656250, 52.343750
4401, 83.592617, 44.915724, 53.834662
4402, 83.593750, 46.093750, 53.906250
4403, 85.127592, 44.842666, 53.806380
4404, 85.156250, 46.093750, 53.906250
4405, 83.593750, 47.656250, 53.906250
4406, 85.156250, 47.656250, 53.906250
4407, 87.114995, 46.417533, 51.173952
4408, 87.681000, 45.612061, 51.219982
4409, 87.384836, 45.555026, 51.069987
4410, 87.890245, 46.489002, 51.160557
4411, 87.985675, 45.701159, 51.134951
4412, 87.997342, 45.795405, 50.492298
4413, 87.890625, 46.484375, 50.390625
4414, 87.622235, 45.754851, 51.787929
4415, 87.772769, 45.164972, 51.954336
4416, 87.658546, 45.266588, 51.428994
4417, 88.123944, 45.722138, 51.959418
4418, 87.980619, 45.164517, 52.052186
4419, 87.859872, 45.247246, 51.480465
4420, 87.107442, 46.372364, 51.863652
4421, 87.881222, 46.497097, 52.031209
4422, 87.127833, 45.554200, 52.101315
4423, 87.253531, 45.134105, 52.198909
4424, 87.935012, 45.810529, 52.671207
4425, 87.860062, 44.889036, 52.544841
4426, 86.583721, 45.941301, 52.213844
4427, 87.889107, 46.485916, 52.735385
4428, 87.559825, 45.246729, 51.417053
4429, 87.216377, 45.159495, 53.392793
4430, 86.746630, 44.828682, 53.867289
4431, 86.702333, 44.783072, 52.646146
4432, 88.157620, 44.879068, 53.354420
4433, 88.087670, 44.436193, 53.863441
4434, 87.624164, 44.532180, 52.850476
4435, 87.212917, 45.586201, 53.416935
4436, 88.023501, 45.767241, 53.463585
4437, 86.785152, 45.962250, 53.877828
4438, 88.229394, 46.245207, 53.986764
4439, 86.633924, 47.619217, 52.427065
4440, 86.721042, 47.700730, 53.901193
4441, 83.593750, 49.218750, 52.343750
4442, 85.156250, 49.218750, 52.343750
4443, 83.593750, 50.781250, 52.343750
4444, 85.156250, 50.781250, 52.343750
4445, 83.593750, 49.218750, 53.906250
4446, 85.156250, 49.218750, 53.906250
4447, 83.593750, 50.781250, 53.906250
4448, 85.156250, 50.781250, 53.906250
4449, 86.644893, 49.256344, 52.419214
4450, 87.663510, 47.966555, 51.210343
4451, 87.103039, 47.347841, 51.191779
4452, 87.054990, 48.118730, 50.568114
4453, 87.896059, 47.998260, 51.144679
4454, 87.887252, 47.245426, 51.133077
4455, 87.889622, 47.264119, 50.389095
4456, 87.890451, 48.043331, 50.388674
4457, 87.662890, 48.907290, 51.208555
4458, 87.055284, 48.752384, 50.568493
4459, 87.896065, 48.876836, 51.144558
4460, 87.890451, 48.831666, 50.388673
4461, 87.099601, 49.536389, 51.196614
4462, 87.887543, 49.628482, 51.136103
4463, 87.889624, 49.610877, 50.389098
4464, 87.665327, 47.963708, 51.915511
4465, 87.097604, 47.332094, 51.927821
4466, 87.895803, 47.992673, 51.984611
4467, 87.887283, 47.244471, 51.993209
4468, 87.668262, 48.910922, 51.916242
4469, 87.896568, 48.883439, 51.982706
4470, 87.098304, 49.540556, 51.925281
4471, 87.887376, 49.629468, 51.990172
4472, 87.045081, 48.093210, 52.550260
4473, 87.862353, 47.987441, 52.741626
4474, 87.888605, 47.263185, 52.736413
4475, 87.050036, 48.783301, 52.553187
4476, 87.862783, 48.887041, 52.741475
4477, 87.888605, 49.611813, 52.736410
4478, 87.130381, 48.103048, 53.488597
4479, 87.971433, 48.042191, 53.533618
4480, 88.246660, 47.579949, 53.979997
4481, 87.133375, 48.772976, 53.487505
4482, 87.971233, 48.833511, 53.533586
4483, 86.723710, 49.172581, 53.900416
4484, 88.247917, 49.295483, 53.977304
4485, 86.657108, 50.748854, 52.422168
4486, 86.709516, 50.841819, 53.904460
4487, 88.247628, 50.699202, 53.996051
4488, 89.794893, 44.543097, 54.065003
4489, 89.875617, 46.172548, 53.968595
4490, 88.631549, 45.074978, 52.551075
4491, 88.698181, 45.719471, 52.444976
4492, 88.698864, 44.823086, 53.068689
4493, 88.604921, 45.639094, 53.007042
4494, 89.434183, 45.100513, 52.679766
4495, 89.512476, 45.681023, 52.517759
4496, 89.501950, 44.872760, 53.061407
4497, 89.567785, 45.660026, 52.948436
4498, 89.967805, 45.145871, 52.773605
4499, 90.198897, 45.701289, 52.602319
4500, 90.092909, 44.996637, 53.232555
4501, 90.223823, 45.501660, 53.107667
4502, 88.668309, 46.486321, 52.734541
4503, 88.782290, 46.201857, 53.545238
4504, 89.458806, 46.487549, 52.734681
4505, 89.394621, 46.302643, 53.559251
4506, 90.282376, 46.360133, 52.656391
4507, 88.685920, 44.536741, 53.460676
4508, 89.391391, 44.517292, 53.508227
4509, 91.175117, 44.999291, 54.152110
4510, 91.379022, 46.098313, 53.742466
4511, 89.869417, 47.585888, 53.966378
4512, 91.396692, 47.562883, 53.963872
4513, 92.284982, 45.149332, 54.506401
4514, 92.506180, 46.251328, 54.069826
4515, 91.003700, 45.906735, 52.733518
4516, 91.471529, 46.034857, 52.766168
4517, 91.713085, 46.555043, 52.793764
4518, 91.077762, 46.452707, 52.690875
4519, 91.075890, 45.617642, 53.169720
4520, 91.516384, 45.951316, 52.900907
4521, 91.846800, 46.372281, 53.246531
4522, 90.850731, 45.067151, 53.400247
4523, 92.949245, 47.723616, 53.866853
4524, 89.870700, 49.290463, 53.971167
4525, 88.668330, 47.263674, 52.734549
4526, 88.624606, 48.023059, 52.728143
4527, 88.747723, 47.439679, 53.570023
4528, 88.595388, 48.086174, 52.969134
4529, 89.456666, 47.263673, 52.734549
4530, 89.500116, 48.021113, 52.728771
4531, 89.380940, 47.435516, 53.567926
4532, 89.532788, 48.086704, 52.960495
4533, 90.235877, 47.264098, 52.735376
4534, 90.252673, 48.012204, 52.737320
4535, 90.161233, 48.071400, 53.518491
4536, 88.624788, 48.852137, 52.728235
4537, 88.595517, 48.788414, 52.969199
4538, 89.500016, 48.853966, 52.728784
4539, 89.532481, 48.788642, 52.961324
4540, 90.252617, 48.862881, 52.737352
4541, 90.160693, 48.802177, 53.518011
4542, 88.668330, 49.611326, 52.734549
4543, 88.746498, 49.434673, 53.574414
4544, 89.456666, 49.611327, 52.734549
4545, 89.381065, 49.439701, 53.573518
4546, 90.235877, 49.610902, 52.735376
4547, 91.422431, 49.318029, 53.958045
4548, 89.872175, 50.709631, 53.971890
4549, 91.423304, 50.681331, 53.959096
4550, 93.046421, 49.343084, 53.838965
4551, 91.163266, 47.244830, 52.650681
4552, 91.775971, 47.308688, 52.654657
4553, 91.793994, 47.993701, 52.499788
4554, 90.999711, 48.014722, 52.736620
4555, 91.884634, 47.512520, 53.464856
4556, 91.705470, 48.101381, 52.979329
4557, 91.079799, 48.061506, 53.502483
4558, 92.336036, 47.402388, 52.820745
4559, 92.542322, 48.099659, 52.692109
4560, 92.534690, 47.644566, 53.437084
4561, 92.649230, 48.080602, 52.993045
4562, 91.781510, 48.831795, 52.465186
4563, 90.997745, 48.869076, 52.736531
4564, 91.706888, 48.747614, 52.974614
4565, 91.058710, 48.824991, 53.491939
4566, 92.559256, 48.903831, 52.561819
4567, 92.687729, 48.801641, 52.930798
4568, 93.050064, 48.342788, 52.835992
4569, 93.084511, 48.887666, 52.820047
4570, 93.230415, 48.191659, 53.238617
4571, 93.237044, 48.744117, 53.219511
4572, 91.792591, 49.611707, 52.734585
4573, 91.014112, 49.610913, 52.735381
4574, 91.881800, 49.355187, 53.543734
4575, 92.525376, 49.597861, 52.678992
4576, 92.557439, 49.428561, 53.497910
4577, 92.978850, 49.567435, 52.958944
4578, 92.210805, 46.800772, 52.874643
4579, 92.366443, 46.667891, 53.304964
4580, 93.920989, 48.209326, 54.072611
4581, 94.001648, 49.222345, 54.037647
4582, 93.051497, 50.661936, 53.836349
4583, 93.988339, 50.786862, 54.025407
4584, 6.222034, 51.659759, 53.473367
4585, 6.052259, 51.812233, 54.034679
4586, 6.167908, 51.291820, 53.451910
4587, 6.764534, 51.800991, 53.202774
4588, 7.032355, 52.242595, 53.829956
4589, 6.749344, 51.270412, 53.189658
4590, 8.601454, 52.439572, 53.964049
4591, 7.000160, 50.444343, 52.947317
4592, 7.457165, 50.404007, 52.701500
4593, 7.438585, 51.089961, 52.575620
4594, 6.908937, 51.117649, 52.807298
4595, 7.435213, 50.573617, 53.487956
4596, 7.310437, 51.190946, 52.926254
4597, 8.207408, 50.388293, 52.734585
4598, 8.222977, 51.165140, 52.468703
4599, 8.117124, 50.646225, 53.539763
4600, 8.295327, 51.250141, 52.973263
4601, 8.985888, 50.389087, 52.735381
4602, 9.003037, 51.129514, 52.736737
4603, 8.939220, 51.176093, 53.492361
4604, 7.444996, 51.896037, 52.687331
4605, 6.946138, 51.652517, 52.817876
4606, 7.345796, 51.912270, 52.980938
4607, 8.212691, 52.004145, 52.515913
4608, 8.296797, 51.899884, 52.978508
4609, 9.000384, 51.985272, 52.736601
4610, 8.922304, 51.938310, 53.502359
4611, 8.222084, 52.688386, 52.674043
4612, 7.651741, 52.584515, 52.829193
4613, 8.120514, 52.482981, 53.460974
4614, 7.450538, 52.345006, 53.424938
4615, 8.839619, 52.752351, 52.667497
4616, 10.129824, 52.414491, 53.969619
4617, 8.590672, 53.902693, 53.734215
4618, 7.393060, 53.487879, 53.930399
4619, 10.097901, 53.837103, 53.989869
4620, 11.752583, 52.420641, 53.980486
4621, 9.764123, 50.389098, 52.735376
4622, 10.543334, 50.388673, 52.734549
4623, 10.499977, 51.146072, 52.728797
4624, 9.747371, 51.137156, 52.737351
4625, 10.619200, 50.559621, 53.572975
4626, 10.467979, 51.211758, 52.961637
4627, 9.839225, 51.197765, 53.517410
4628, 11.331670, 50.388674, 52.734549
4629, 11.373551, 51.149507, 52.728050
4630, 11.254934, 50.563981, 53.574039
4631, 11.405140, 51.210732, 52.969732
4632, 12.111395, 50.388187, 52.736410
4633, 12.137222, 51.112941, 52.741461
4634, 12.028017, 51.166206, 53.531904
4635, 10.499916, 51.978884, 52.728792
4636, 9.746972, 51.988438, 52.737422
4637, 10.466955, 51.913363, 52.960580
4638, 9.838709, 51.927315, 53.520216
4639, 11.375304, 51.976917, 52.728156
4640, 11.404557, 51.913974, 52.969286
4641, 12.137557, 52.012665, 52.741573
4642, 12.028324, 51.957722, 53.534442
4643, 10.543334, 52.736327, 52.734549
4644, 9.764123, 52.735902, 52.735376
4645, 10.618762, 52.564489, 53.569460
4646, 11.331670, 52.736326, 52.734549
4647, 11.254323, 52.559488, 53.572983
4648, 12.111395, 52.736813, 52.736410
4649, 12.948142, 51.215648, 52.551916
4650, 12.867347, 51.226691, 53.488746
4651, 12.949976, 51.909348, 52.551732
4652, 12.868494, 51.898329, 53.489419
4653, 13.357404, 52.380991, 52.421086
4654, 13.278745, 52.298201, 53.900512
4655, 11.775924, 53.827333, 53.987724
4656, 13.253825, 53.970373, 53.869638
4657, 8.266682, 53.460785, 52.816938
4658, 8.904436, 53.568158, 52.717969
4659, 9.043415, 54.207148, 52.818911
4660, 8.492735, 54.011055, 52.834169
4661, 8.127810, 53.614392, 53.232482
4662, 8.896084, 54.362980, 53.260012
4663, 8.447928, 54.061595, 52.962677
4664, 7.756374, 53.177922, 52.879334
4665, 7.582371, 53.270033, 53.293637
4666, 10.250968, 55.367666, 53.997955
4667, 9.080337, 55.032699, 54.005775
4668, 11.812674, 55.507403, 53.900195
4669, 9.715924, 53.659465, 52.655522
4670, 10.541222, 53.512442, 52.734688
4671, 10.438925, 54.303440, 52.526004
4672, 9.754219, 54.217105, 52.668655
4673, 10.609632, 53.708146, 53.570337
4674, 10.441567, 54.339065, 52.961432
4675, 9.881638, 54.300217, 53.413960
4676, 11.331686, 53.513691, 52.734542
4677, 11.374309, 54.253956, 52.729970
4678, 11.228923, 53.769650, 53.563712
4679, 11.345483, 54.266252, 53.051896
4680, 12.111906, 53.512568, 52.736924
4681, 12.130972, 54.237152, 52.744733
4682, 12.010741, 54.271786, 53.526405
4683, 10.550231, 54.869395, 52.576222
4684, 9.847336, 54.768115, 52.803251
4685, 10.473452, 55.155335, 53.048096
4686, 9.893784, 54.994987, 53.327102
4687, 11.422276, 55.138940, 52.610970
4688, 11.253103, 55.141901, 52.996716
4689, 12.054340, 55.081224, 52.563346
4690, 12.018202, 55.038647, 53.499490
4691, 12.130998, 55.454634, 52.850619
4692, 11.649771, 55.518720, 52.917229
4693, 11.285868, 55.500605, 53.468798
4694, 10.609515, 55.514576, 53.484625
4695, 9.311594, 54.705703, 52.906418
4696, 9.233869, 54.862875, 53.316821
4697, 13.326858, 53.886556, 52.410754
4698, 12.887888, 54.308062, 52.465287
4699, 12.859817, 54.338991, 53.474262
4700, 12.875238, 54.867720, 52.173208
4701, 12.866496, 54.885095, 53.464468
4702, 13.269047, 55.134498, 52.331310
4703, 13.247185, 55.210682, 53.824357
4704, 14.843750, 52.343750, 52.343750
4705, 12.110376, 50.389123, 50.389098
4706, 12.109549, 51.168334, 50.388673
4707, 12.103947, 51.123209, 51.144556
4708, 12.112358, 50.371884, 51.136776
4709, 12.948920, 51.246769, 50.567871
4710, 12.337526, 51.093297, 51.209116
4711, 12.900584, 50.462852, 51.196276
4712, 12.109549, 51.956666, 50.388673
4713, 12.103949, 52.001815, 51.144459
4714, 12.948776, 51.878837, 50.566850
4715, 12.336547, 52.031899, 51.210426
4716, 12.110376, 52.735877, 50.389098
4717, 12.112399, 52.753087, 51.136645
4718, 12.896601, 52.661156, 51.196727
4719, 12.103457, 51.116568, 51.982812
4720, 12.112629, 50.370525, 51.990196
4721, 12.331442, 51.088259, 51.916408
4722, 12.901271, 50.459163, 51.924806
4723, 12.103452, 52.008389, 51.982822
4724, 12.331886, 52.036172, 51.916006
4725, 12.112670, 52.754426, 51.990305
4726, 12.899610, 52.664616, 51.925171
4727, 16.406250, 52.343750, 52.343750
4728, 14.843750, 53.906250, 52.343750
4729, 16.406250, 53.906250, 52.343750
4730, 14.843750, 52.343750, 53.906250
4731, 16.406250, 52.343750, 53.906250
4732, 14.843750, 53.906250, 53.906250
4733, 16.406250, 53.906250, 53.906250
4734, 14.896425, 54.941255, 52.301184
4735, 12.110387, 53.514098, 50.389088
4736, 12.009729, 54.298443, 50.382787
4737, 11.897909, 54.273677, 51.089294
4738, 12.112082, 53.496489, 51.137165
4739, 12.871137, 54.382413, 50.608073
4740, 12.338281, 54.199453, 51.206780
4741, 12.888122, 53.576681, 51.191175
4742, 12.188962, 54.717374, 50.449434
4743, 11.932377, 54.730837, 51.184446
4744, 12.858960, 54.821488, 50.701544
4745, 12.302808, 54.759002, 51.185246
4746, 12.100456, 54.219248, 51.992058
4747, 12.113598, 53.491162, 51.997810
4748, 12.321868, 54.197210, 51.922374
4749, 12.891523, 53.591224, 51.929841
4750, 11.901411, 54.811625, 51.825219
4751, 12.240668, 54.768356, 51.759948
4752, 16.449982, 54.880119, 52.332201
4753, 14.858777, 55.159470, 53.814022
4754, 16.408909, 55.066218, 53.851385
4755, 27.343750, 52.343750, 52.343750
4756, 28.906250, 52.343750, 52.343750
4757, 27.493906, 53.713317, 52.327164
4758, 29.071385, 53.567596, 52.239276
4759, 27.593791, 52.537646, 54.096045
4760, 29.087418, 52.413460, 54.041732
4761, 27.424934, 53.553553, 53.844757
4762, 29.103518, 53.422632, 53.453812
4763, 30.468750, 52.343750, 52.343750
4764, 32.031250, 52.343750, 52.343750
4765, 30.583117, 53.470691, 52.181006
4766, 32.061700, 53.407007, 52.169433
4767, 30.585085, 52.321448, 53.923624
4768, 32.064190, 52.275552, 53.835701
4769, 30.595089, 53.304783, 53.288166
4770, 31.968327, 53.229373, 53.214281
4771, 27.442957, 52.333300, 55.498123
4772, 29.008651, 51.934125, 55.501260
4773, 27.030525, 53.383904, 54.988789
4774, 27.454904, 51.795725, 56.672979
4775, 28.532374, 51.596457, 56.450117
4776, 30.588024, 51.791333, 55.175109
4777, 32.106929, 51.723067, 54.943933
4778, 33.738137, 52.496456, 52.500702
4779, 35.241873, 52.438292, 52.476906
4780, 33.508303, 53.376901, 52.198980
4781, 35.227294, 53.363128, 51.881614
4782, 33.505341, 52.265112, 53.810848
4783, 35.133576, 52.004278, 53.933616
4784, 33.051375, 53.206029, 53.206836
4785, 36.795551, 52.426909, 52.402720
4786, 38.340463, 52.417899, 52.355217
4787, 36.805723, 53.343720, 51.761584
4788, 38.350195, 53.324381, 51.703527
4789, 36.823905, 52.035582, 53.701156
4790, 38.384687, 52.033980, 53.606414
4791, 33.517336, 51.678883, 54.820755
4792, 34.659306, 51.599452, 54.795507
4793, 39.883723, 52.408153, 52.326555
4794, 41.427769, 52.395826, 52.313584
4795, 39.890460, 53.308785, 51.673302
4796, 41.433781, 53.295005, 51.660401
4797, 39.916307, 52.016762, 53.547929
4798, 41.442406, 51.996378, 53.516088
4799, 42.973640, 52.383767, 52.310052
4800, 44.520012, 52.368234, 52.321106
4801, 42.981566, 53.284420, 51.655932
4802, 44.530851, 53.272308, 51.664159
4803, 42.966048, 51.972858, 53.507717
4804, 44.485202, 51.941217, 53.526292
4805, 46.067878, 52.346750, 52.341629
4806, 47.620445, 52.327059, 52.369089
4807, 46.081712, 53.257036, 51.680003
4808, 47.639145, 53.251131, 51.703017
4809, 46.008763, 51.894361, 53.567732
4810, 47.527039, 51.818256, 53.627198
4811, 49.194155, 52.317952, 52.382927
4812, 50.772482, 52.311590, 52.382034
4813, 49.205771, 53.246824, 51.720219
4814, 50.776609, 53.236757, 51.724948
4815, 49.139538, 51.788671, 53.620046
4816, 50.746583, 51.770005, 53.618496
4817, 52.343379, 52.300572, 52.391905
4818, 53.917692, 52.307579, 52.394437
4819, 52.341964, 53.223462, 51.731189
4820, 53.908673, 53.230599, 51.730912
4821, 52.348137, 51.769884, 53.623479
4822, 53.950623, 51.787282, 53.643204
4823, 55.488745, 52.330070, 52.388836
4824, 57.041874, 52.364788, 52.369287
4825, 55.471992, 53.244663, 51.718619
4826, 57.028168, 53.270305, 51.705355
4827, 55.559805, 51.825259, 53.665374
4828, 57.083061, 51.922673, 53.629751
4829, 58.587432, 52.393760, 52.357467
4830, 60.127460, 52.415950, 52.357587
4831, 58.577258, 53.296436, 51.693022
4832, 60.117939, 53.317199, 51.694693
4833, 58.600758, 51.981639, 53.608263
4834, 60.114508, 52.020162, 53.608581
4835, 61.668451, 52.434683, 52.374460
4836, 63.212333, 52.447550, 52.415256
4837, 61.656905, 53.342766, 51.715394
4838, 63.203919, 53.366015, 51.766264
4839, 61.630314, 52.043693, 53.642490
4840, 63.183681, 52.052092, 53.726538
4841, 64.760514, 52.454019, 52.483673
4842, 66.261512, 52.494629, 52.499599
4843, 64.776222, 53.379242, 51.883124
4844, 66.490614, 53.370221, 52.191968
4845, 64.872552, 52.016014, 53.943706
4846, 66.501909, 52.258711, 53.807581
4847, 67.968750, 52.343750, 52.343750
4848, 69.531250, 52.343750, 52.343750
4849, 67.947624, 53.405815, 52.171181
4850, 69.421152, 53.467589, 52.183769
4851, 67.944905, 52.274057, 53.838962
4852, 69.418728, 52.320142, 53.933853
4853, 68.044316, 53.225054, 53.217534
4854, 66.952474, 53.197410, 53.211405
4855, 69.406847, 53.299090, 53.296227
4856, 66.493863, 51.680155, 54.829878
4857, 65.355251, 51.607585, 54.804611
4858, 67.900022, 51.723946, 54.963942
4859, 69.418048, 51.791172, 55.200970
4860, 71.093750, 52.343750, 52.343750
4861, 72.656250, 52.343750, 52.343750
4862, 70.935877, 53.554462, 52.241163
4863, 72.505853, 53.689236, 52.328847
4864, 70.912568, 52.403214, 54.051714
4865, 72.398485, 52.517790, 54.101559
4866, 70.894183, 53.399718, 53.457659
4867, 72.551987, 53.509510, 53.842637
4868, 71.006896, 51.922724, 55.523526
4869, 72.571557, 52.328942, 55.511182
4870, 72.562944, 51.798298, 56.712125
4871, 71.485302, 51.570695, 56.491313
4872, 72.944965, 53.346875, 55.002984
4873, 83.584636, 52.338730, 52.319135
4874, 85.116291, 52.263086, 52.426581
4875, 83.521105, 53.876850, 52.416634
4876, 83.593750, 52.343750, 53.906250
4877, 85.222919, 52.338018, 53.909048
4878, 83.642791, 53.985933, 53.855991
4879, 86.672752, 52.311647, 52.482215
4880, 87.663899, 51.090844, 51.209485
4881, 87.107585, 50.466258, 51.191963
4882, 87.049373, 51.233760, 50.578143
4883, 87.896005, 51.121452, 51.143249
4884, 87.887596, 50.371649, 51.135718
4885, 87.889624, 50.389123, 50.389098
4886, 87.890451, 51.168334, 50.388673
4887, 87.666482, 52.032595, 51.210408
4888, 87.051700, 51.867714, 50.546201
4889, 87.896404, 52.000377, 51.145920
4890, 87.890494, 51.955959, 50.389057
4891, 87.074024, 52.698448, 51.211020
4892, 87.889071, 52.747525, 51.150407
4893, 87.889828, 52.735573, 50.389409
4894, 87.670049, 51.086240, 51.918352
4895, 87.106112, 50.460891, 51.928858
4896, 87.896505, 51.114738, 51.984114
4897, 87.887486, 50.370969, 51.989758
4898, 87.669715, 52.038486, 51.915983
4899, 87.896141, 52.008248, 51.984829
4900, 87.076346, 52.702499, 51.909431
4901, 87.888796, 52.749373, 51.977185
4902, 87.045126, 51.201818, 52.545257
4903, 87.860268, 51.107324, 52.742185
4904, 87.888605, 50.388187, 52.736410
4905, 87.036367, 51.907634, 52.562565
4906, 87.860793, 52.016401, 52.741505
4907, 87.888612, 52.736804, 52.736406
4908, 87.122074, 53.514148, 51.151030
4909, 87.110573, 53.514828, 50.389409
4910, 87.890625, 53.515625, 51.171875
4911, 87.890625, 53.515625, 50.390625
4912, 87.125234, 53.513647, 51.978499
4913, 87.890625, 53.515625, 51.953125
4914, 87.111793, 53.513593, 52.736408
4915, 87.889109, 53.514096, 52.735381
4916, 87.122135, 51.232312, 53.478646
4917, 87.970414, 51.166233, 53.534179
4918, 87.136572, 51.897998, 53.457221
4919, 87.975151, 51.965855, 53.529997
4920, 86.679423, 52.316032, 53.857288
4921, 88.244610, 52.440713, 53.990627
4922, 84.763396, 53.513286, 50.387852
4923, 85.543330, 53.515451, 50.388674
4924, 85.496678, 53.521107, 51.142840
4925, 84.743831, 53.491025, 51.096029
4926, 85.611039, 52.669505, 50.578922
4927, 85.464407, 53.289196, 51.208666
4928, 84.840599, 52.724610, 51.162359
4929, 86.330959, 53.515494, 50.389057
4930, 86.374729, 53.520700, 51.143920
4931, 86.238789, 52.673633, 50.545599
4932, 86.408219, 53.291741, 51.211902
4933, 85.486360, 53.521322, 51.987405
4934, 84.743757, 53.486671, 52.034083
4935, 85.459043, 53.297634, 51.919750
4936, 84.831049, 52.719806, 51.961317
4937, 86.386946, 53.520839, 51.987638
4938, 86.416788, 53.297106, 51.917696
4939, 85.539015, 53.513104, 52.736545
4940, 84.778648, 53.528586, 52.721485
4941, 85.570927, 52.666686, 52.544408
4942, 86.335971, 53.512753, 52.736211
4943, 86.297531, 52.655208, 52.556852
4944, 83.976455, 53.583966, 51.167901
4945, 84.012953, 52.760783, 51.205706
4946, 83.972932, 53.591206, 51.957662
4947, 84.011107, 52.760668, 51.918498
4948, 85.062410, 53.843025, 54.000037
4949, 85.561065, 53.744310, 53.568818
4950, 85.619212, 52.748691, 53.477939
4951, 86.324500, 53.735888, 53.566484
4952, 86.270379, 52.759492, 53.467347
4953, 86.803150, 53.851009, 53.981295
4954, 83.621437, 55.186911, 52.348961
4955, 84.546580, 54.199962, 51.200617
4956, 84.006326, 54.382836, 50.608042
4957, 84.775182, 54.228374, 51.137924
4958, 84.764765, 54.283543, 50.383821
4959, 84.571244, 54.890184, 51.165723
4960, 84.044290, 54.903976, 50.690568
4961, 85.001778, 54.872561, 51.091520
4962, 84.887887, 54.852300, 50.421295
4963, 84.546654, 54.195460, 51.924615
4964, 84.774983, 54.213963, 51.994503
4965, 84.625772, 54.887287, 51.739385
4966, 85.000832, 54.945647, 51.772628
4967, 83.983001, 54.315354, 52.467965
4968, 84.718886, 54.197471, 52.751856
4969, 84.007165, 54.906110, 52.168078
4970, 84.841737, 55.141413, 52.532202
4971, 84.015544, 54.341971, 53.482643
4972, 84.878787, 54.286136, 53.512366
4973, 84.007482, 54.860163, 53.492515
4974, 84.879489, 55.024306, 53.535993
4975, 83.678187, 55.125457, 53.810535
4976, 84.783656, 55.386654, 52.813063
4977, 85.059325, 55.320676, 53.843767
4978, 88.234794, 53.833723, 53.918206
4979, 86.762740, 55.293522, 53.852360
4980, 85.458550, 54.242275, 52.731624
4981, 85.460996, 54.299252, 52.909285
4982, 86.415128, 54.245036, 52.731093
4983, 86.417322, 54.303505, 52.906955
4984, 87.142135, 54.237866, 52.741141
4985, 87.010369, 54.319693, 53.496297
4986, 85.564206, 55.123316, 52.523317
4987, 85.485925, 54.934838, 52.993427
4988, 86.351469, 55.111964, 52.555378
4989, 86.391923, 54.939471, 52.991910
4990, 87.103334, 55.119060, 52.690557
4991, 87.008506, 55.007041, 53.536036
4992, 85.571077, 55.370538, 52.834678
4993, 85.686622, 55.118231, 53.356298
4994, 86.298717, 55.394571, 52.892504
4995, 86.176966, 55.126717, 53.366930
4996, 87.005734, 55.427926, 53.071267
4997, 88.235451, 55.257704, 53.873172
4998, 89.872156, 52.413303, 53.967306
4999, 88.668330, 50.388674, 52.734549
5000, 88.626497, 51.149507, 52.728047
5001, 88.746524, 50.566976, 53.577672
5002, 88.595217, 51.210915, 52.971475
5003, 89.456666, 50.388673, 52.734549
5004, 89.499969, 51.146053, 52.728812
5005, 89.380903, 50.560226, 53.573687
5006, 89.531799, 51.211317, 52.962130
5007, 90.235877, 50.389098, 52.735376
5008, 90.252607, 51.137145, 52.737350
5009, 90.160473, 51.197811, 53.518198
5010, 88.626531, 51.975623, 52.728060
5011, 88.594047, 51.913035, 52.969483
5012, 89.500734, 51.976981, 52.728134
5013, 89.531521, 51.914456, 52.961164
5014, 90.252659, 51.987789, 52.737318
5015, 90.161498, 51.928317, 53.519077
5016, 88.668330, 52.736326, 52.734549
5017, 88.742325, 52.558496, 53.572949
5018, 89.456666, 52.736327, 52.734549
5019, 89.378787, 52.566651, 53.567988
5020, 90.235877, 52.735902, 52.735376
5021, 91.397259, 52.438609, 53.963165
5022, 89.875843, 53.839588, 53.933437
5023, 91.395701, 53.891639, 53.705104
5024, 92.951448, 52.238690, 53.845985
5025, 91.014112, 50.389087, 52.735380
5026, 91.792591, 50.388294, 52.734585
5027, 91.784824, 51.169747, 52.471746
5028, 90.997456, 51.130114, 52.736566
5029, 91.885501, 50.650396, 53.540126
5030, 91.707558, 51.254432, 52.972913
5031, 91.057539, 51.174421, 53.490008
5032, 92.526123, 50.410180, 52.683096
5033, 92.565487, 51.101133, 52.581137
5034, 92.558561, 50.577328, 53.495437
5035, 92.684874, 51.199762, 52.929736
5036, 92.982082, 50.448951, 52.965572
5037, 93.083960, 51.123951, 52.828738
5038, 93.230388, 51.264862, 53.214062
5039, 91.789049, 52.011831, 52.526480
5040, 90.999505, 51.985262, 52.736655
5041, 91.702636, 51.905186, 52.980185
5042, 91.078998, 51.937698, 53.501048
5043, 92.542501, 51.904520, 52.700557
5044, 92.647578, 51.914797, 52.995672
5045, 93.041147, 51.658164, 52.842008
5046, 93.211241, 51.793865, 53.231012
5047, 91.766530, 52.696342, 52.659061
5048, 91.152450, 52.757761, 52.660065
5049, 91.874950, 52.481252, 53.463745
5050, 92.330620, 52.587496, 52.830374
5051, 92.532801, 52.336181, 53.432421
5052, 93.889724, 51.774138, 54.044309
5053, 92.571469, 53.475061, 53.916224
5054, 89.743118, 55.086309, 53.902767
5055, 88.667610, 53.513279, 52.734582
5056, 88.654258, 54.292541, 52.481115
5057, 87.874369, 54.260428, 52.736030
5058, 88.746145, 53.773575, 53.530162
5059, 88.614495, 54.357782, 52.956210
5060, 87.937088, 54.296063, 53.483948
5061, 89.460688, 53.511096, 52.734917
5062, 89.498920, 54.306564, 52.498255
5063, 89.419267, 53.683523, 53.546903
5064, 89.569363, 54.328638, 52.940808
5065, 90.266178, 53.626993, 52.662834
5066, 90.194191, 54.285508, 52.593467
5067, 90.220998, 54.485761, 53.100281
5068, 88.554114, 55.023923, 52.666586
5069, 87.890073, 55.077848, 52.719343
5070, 88.769712, 54.920618, 53.065217
5071, 87.983597, 54.985633, 53.540768
5072, 89.404848, 54.855934, 52.686367
5073, 89.457419, 54.946990, 53.040631
5074, 89.947697, 54.802894, 52.764940
5075, 90.067432, 54.933111, 53.194763
5076, 88.444661, 55.335011, 52.983611
5077, 87.922011, 55.400946, 53.105514
5078, 88.797967, 55.112623, 53.407797
5079, 89.336313, 54.945324, 53.467217
5080, 90.883394, 54.996109, 53.999243
5081, 91.078118, 53.556670, 52.692723
5082, 91.715459, 53.444284, 52.802092
5083, 91.478347, 53.964048, 52.780482
5084, 90.993724, 54.090298, 52.744218
5085, 91.851333, 53.615695, 53.230351
5086, 91.521395, 54.050417, 52.912740
5087, 91.064776, 54.380582, 53.161108
5088, 90.734934, 54.899031, 53.359567
5089, 92.219358, 53.173244, 52.876733
5090, 92.397219, 53.273272, 53.305669
5091, 9.115334, 46.658317, 47.957469
5092, 9.759091, 46.476051, 48.118919
5093, 9.661459, 47.196195, 48.167712
5094, 8.974160, 47.331444, 48.109785
5095, 10.781174, 45.245285, 47.932714
5096, 11.347294, 45.214288, 48.071519
5097, 11.265497, 45.676437, 48.136530
5098, 10.578094, 45.742404, 48.120310
5099, 11.487806, 45.270824, 48.638543
5100, 11.310750, 45.717267, 48.854741
5101, 9.948238, 45.871105, 47.970732
5102, 10.452154, 46.392907, 48.169955
5103, 11.328125, 46.484375, 48.046875
5104, 10.546875, 47.265625, 48.046875
5105, 11.328125, 47.265625, 48.046875
5106, 10.733434, 45.895845, 48.921563
5107, 11.328125, 46.484375, 48.828125
5108, 10.504427, 46.455539, 48.921181
5109, 9.904418, 46.670096, 48.935893
5110, 10.546875, 47.265625, 48.828125
5111, 9.719638, 47.276532, 48.901693
5112, 11.328125, 47.265625, 48.828125
5113, 10.773762, 45.966122, 49.644238
5114, 11.298761, 45.839797, 49.632793
5115, 11.328125, 46.484375, 49.609375
5116, 10.531488, 46.492155, 49.637735
5117, 9.953350, 46.749132, 49.635445
5118, 10.546875, 47.265625, 49.609375
5119, 9.737740, 47.321094, 49.564973
5120, 11.328125, 47.265625, 49.609375
5121, 10.765714, 45.959705, 50.341145
5122, 11.297916, 45.843949, 50.363862
5123, 11.328125, 46.484375, 50.390625
5124, 10.520236, 46.485217, 50.350373
5125, 9.931996, 46.733336, 50.350038
5126, 10.546875, 47.265625, 50.390625
5127, 9.717395, 47.305273, 50.435093
5128, 11.328125, 47.265625, 50.390625
5129, 8.417056, 47.509483, 47.911853
5130, 8.916919, 48.029058, 48.158335
5131, 8.354413, 48.083971, 47.982016
5132, 9.765625, 48.046875, 48.046875
5133, 8.853633, 48.764836, 48.167570
5134, 8.224798, 48.930177, 48.055503
5135, 9.765625, 48.828125, 48.046875
5136, 9.190385, 47.525735, 48.866842
5137, 9.765625, 48.046875, 48.828125
5138, 9.101978, 48.087391, 48.893598
5139, 9.765625, 48.828125, 48.828125
5140, 8.927884, 48.868225, 48.856658
5141, 7.692763, 49.117386, 47.859730
5142, 8.219100, 49.631628, 48.032455
5143, 7.710123, 49.666283, 47.814168
5144, 8.228839, 50.361938, 48.024406
5145, 7.713148, 50.329914, 47.812737
5146, 8.984375, 49.609375, 48.046875
5147, 9.765625, 49.609375, 48.046875
5148, 8.984375, 50.390625, 48.046875
5149, 9.765625, 50.390625, 48.046875
5150, 8.406483, 49.120263, 48.581903
5151, 8.916574, 49.613079, 48.857671
5152, 8.418711, 49.665699, 48.558555
5153, 9.765625, 49.609375, 48.828125
5154, 8.925637, 50.367633, 48.851362
5155, 8.426825, 50.324936, 48.553631
5156, 9.765625, 50.390625, 48.828125
5157, 9.271777, 47.573520, 49.386523
5158, 9.638389, 47.937166, 49.704774
5159, 9.196208, 48.083478, 49.541171
5160, 9.765625, 48.828125, 49.609375
5161, 9.098720, 48.821532, 49.619144
5162, 9.176466, 48.075886, 50.456140
5163, 9.630728, 47.932137, 50.293064
5164, 9.765625, 48.828125, 50.390625
5165, 9.091917, 48.818268, 50.374120
5166, 9.765625, 49.609375, 49.609375
5167, 9.065168, 49.592643, 49.634638
5168, 9.765625, 50.390625, 49.609375
5169, 9.079511, 50.359959, 49.637608
5170, 9.765625, 49.609375, 50.390625
5171, 9.060318, 49.591241, 50.361927
5172, 9.765625, 50.390625, 50.390625
5173, 9.086480, 50.359341, 50.365245
5174, 10.546875, 48.046875, 48.046875
5175, 11.328125, 48.046875, 48.046875
5176, 10.546875, 48.828125, 48.046875
5177, 11.328125, 48.828125, 48.046875
5178, 10.546875, 48.046875, 48.828125
5179, 11.328125, 48.046875, 48.828125
5180, 10.546875, 48.828125, 48.828125
5181, 11.328125, 48.828125, 48.828125
5182, 10.546875, 49.609375, 48.046875
5183, 11.328125, 49.609375, 48.046875
5184, 10.546875, 50.390625, 48.046875
5185, 11.328125, 50.390625, 48.046875
5186, 10.546875, 49.609375, 48.828125
5187, 11.328125, 49.609375, 48.828125
5188, 10.546875, 50.390625, 48.828125
5189, 11.328125, 50.390625, 48.828125
5190, 10.546875, 48.046875, 49.609375
5191, 11.328125, 48.046875, 49.609375
5192, 10.546875, 48.828125, 49.609375
5193, 11.328125, 48.828125, 49.609375
5194, 10.546875, 48.046875, 50.390625
5195, 11.328125, 48.046875, 50.390625
5196, 10.546875, 48.828125, 50.390625
5197, 11.328125, 48.828125, 50.390625
5198, 10.546875, 49.609375, 49.609375
5199, 11.328125, 49.609375, 49.609375
5200, 10.546875, 50.390625, 49.609375
5201, 11.328125, 50.390625, 49.609375
5202, 10.546875, 49.609375, 50.390625
5203, 11.328125, 49.609375, 50.390625
5204, 10.546875, 50.390625, 50.390625
5205, 11.328125, 50.390625, 50.390625
5206, 88.491599, 45.231009, 47.847217
5207, 88.573566, 45.740038, 48.106428
5208, 88.671875, 46.484375, 48.046875
5209, 89.434282, 45.895229, 48.088124
5210, 89.536151, 46.451222, 48.126405
5211, 88.671875, 47.265625, 48.046875
5212, 89.453125, 47.265625, 48.046875
5213, 88.707644, 45.897556, 48.835402
5214, 88.784812, 46.394547, 48.915786
5215, 89.284997, 45.986384, 48.659918
5216, 89.488043, 46.480059, 48.813771
5217, 88.671875, 47.265625, 48.828125
5218, 89.583706, 47.141171, 48.922317
5219, 90.023766, 45.958457, 47.920942
5220, 90.198675, 46.517873, 48.033952
5221, 90.292161, 47.209339, 48.117699
5222, 90.793069, 46.705633, 47.867483
5223, 90.939067, 47.340466, 48.016511
5224, 90.066986, 46.660025, 48.648644
5225, 90.230923, 47.265897, 48.814556
5226, 88.551345, 45.936218, 49.627316
5227, 88.763131, 46.427108, 49.645259
5228, 88.671875, 47.265625, 49.609375
5229, 89.406877, 46.579739, 49.650680
5230, 89.557338, 47.163052, 49.634420
5231, 88.552173, 45.915947, 50.400848
5232, 88.773683, 46.422394, 50.375889
5233, 88.671875, 47.265625, 50.390625
5234, 89.482550, 46.605385, 50.451544
5235, 89.557624, 47.157594, 50.318353
5236, 88.671875, 48.046875, 47.265625
5237, 88.671875, 48.046875, 48.046875
5238, 89.453125, 48.046875, 47.265625
5239, 89.453125, 48.046875, 48.046875
5240, 88.671875, 48.828125, 47.265625
5241, 88.671875, 48.828125, 48.046875
5242, 89.453125, 48.828125, 47.265625
5243, 89.453125, 48.828125, 48.046875
5244, 88.671875, 48.046875, 48.828125
5245, 89.453125, 48.046875, 48.828125
5246, 88.671875, 48.828125, 48.828125
5247, 89.453125, 48.828125, 48.828125
5248, 90.232550, 48.039736, 47.278622
5249, 90.234239, 48.042439, 48.031859
5250, 90.982418, 47.999801, 47.226189
5251, 91.047204, 48.025967, 48.073520
5252, 90.186694, 48.806888, 47.224697
5253, 90.192006, 48.812436, 48.084024
5254, 90.293263, 48.030510, 48.927198
5255, 90.778866, 47.490276, 48.648051
5256, 90.827574, 48.092957, 48.837375
5257, 90.174013, 48.805514, 48.787035
5258, 88.671875, 49.609375, 47.265625
5259, 88.671875, 49.609375, 48.046875
5260, 89.453125, 49.609375, 47.265625
5261, 89.495097, 49.622864, 48.060993
5262, 88.671875, 50.390625, 47.265625
5263, 88.670630, 50.413001, 48.046410
5264, 89.453125, 50.390625, 47.265625
5265, 89.434217, 50.339538, 48.000284
5266, 88.668794, 49.603901, 48.839988
5267, 89.434122, 49.564036, 48.783535
5268, 88.625015, 50.369590, 48.787790
5269, 90.196651, 49.625868, 47.224558
5270, 90.181416, 49.629711, 48.084770
5271, 90.708990, 48.983537, 47.477498
5272, 90.421152, 48.666014, 47.457092
5273, 90.399808, 49.046375, 47.164979
5274, 90.825075, 48.990223, 47.444877
5275, 90.806334, 48.621058, 47.419734
5276, 90.826580, 48.639054, 47.076577
5277, 90.804569, 48.990927, 47.066641
5278, 90.709911, 49.453775, 47.478874
5279, 90.399220, 49.390595, 47.164670
5280, 90.825004, 49.447506, 47.444957
5281, 90.804999, 49.447101, 47.066625
5282, 90.426065, 49.772123, 47.476658
5283, 90.818615, 49.815237, 47.441202
5284, 90.819288, 49.805917, 47.069288
5285, 90.704235, 48.986754, 47.835213
5286, 90.418909, 48.669720, 47.856367
5287, 90.825020, 48.994126, 47.864944
5288, 90.808715, 48.620438, 47.896546
5289, 90.704538, 49.452712, 47.831931
5290, 90.823696, 49.442195, 47.868454
5291, 90.420780, 49.770232, 47.832703
5292, 90.818365, 49.815906, 47.872588
5293, 90.401924, 49.064406, 48.150354
5294, 90.820260, 49.021984, 48.242965
5295, 90.819903, 48.632198, 48.242802
5296, 90.400893, 49.373254, 48.145844
5297, 90.820260, 49.415516, 48.242965
5298, 90.819903, 49.805302, 48.242802
5299, 90.444501, 48.257634, 47.481777
5300, 90.859543, 48.234064, 47.457846
5301, 90.443939, 48.259710, 47.831059
5302, 90.865275, 48.248885, 47.856480
5303, 90.233016, 48.850178, 46.484369
5304, 90.443001, 49.054786, 46.698294
5305, 90.988492, 48.783084, 46.435453
5306, 90.858316, 49.022493, 46.669855
5307, 90.444253, 49.382377, 46.696398
5308, 90.861775, 49.416601, 46.672923
5309, 90.236455, 49.586127, 46.486324
5310, 91.000454, 49.651622, 46.444762
5311, 90.196271, 50.376089, 47.225533
5312, 90.171155, 50.345055, 48.047226
5313, 90.221318, 49.588121, 48.758008
5314, 88.671875, 48.046875, 49.609375
5315, 89.453125, 48.046875, 49.609375
5316, 88.671875, 48.828125, 49.609375
5317, 89.453125, 48.828125, 49.609375
5318, 88.671875, 48.046875, 50.390625
5319, 89.453125, 48.046875, 50.390625
5320, 88.671875, 48.828125, 50.390625
5321, 89.453125, 48.828125, 50.390625
5322, 90.119849, 47.354846, 49.634341
5323, 90.291369, 48.087953, 49.559512
5324, 90.175334, 48.801142, 49.649662
5325, 90.080677, 47.259546, 50.447561
5326, 90.292894, 48.082317, 50.439533
5327, 90.175165, 48.802165, 50.352110
5328, 88.668793, 49.605128, 49.595416
5329, 89.446243, 49.569437, 49.650359
5330, 88.633451, 50.375901, 49.645782
5331, 88.669338, 49.605246, 50.403852
5332, 89.445492, 49.571316, 50.351020
5333, 88.630382, 50.377449, 50.352480
5334, 90.211748, 49.594875, 49.678988
5335, 90.693963, 48.986731, 49.035974
5336, 90.421708, 48.682461, 49.013383
5337, 90.401291, 49.056277, 48.736424
5338, 90.824868, 48.995496, 49.009927
5339, 90.815740, 48.614244, 48.976002
5340, 90.819903, 48.632198, 48.632198
5341, 90.820260, 49.021984, 48.632035
5342, 90.702428, 49.450783, 49.042323
5343, 90.400533, 49.373926, 48.713387
5344, 90.823977, 49.438417, 49.009256
5345, 90.820260, 49.415516, 48.632035
5346, 90.411676, 49.790333, 49.044119
5347, 90.819710, 49.810354, 49.013956
5348, 90.819903, 49.805302, 48.632198
5349, 90.690841, 48.980310, 49.389986
5350, 90.421893, 48.693413, 49.407966
5351, 90.912507, 48.988271, 49.433248
5352, 90.836813, 48.641087, 49.446983
5353, 90.701815, 49.443111, 49.398616
5354, 90.936238, 49.394795, 49.466037
5355, 90.420489, 49.795683, 49.392959
5356, 90.819628, 49.811081, 49.425140
5357, 90.401744, 49.059876, 49.702597
5358, 90.818923, 48.994090, 49.797857
5359, 90.743587, 48.658466, 49.740289
5360, 90.404311, 49.364469, 49.721549
5361, 90.871821, 49.375500, 49.807144
5362, 90.819903, 49.805302, 49.805302
5363, 90.437948, 50.194294, 49.009993
5364, 90.430917, 50.194288, 48.631788
5365, 90.820312, 50.195312, 49.023438
5366, 90.820312, 50.195312, 48.632812
5367, 90.437787, 50.194407, 49.427883
5368, 90.820312, 50.195312, 49.414062
5369, 90.430302, 50.194903, 49.805302
5370, 90.820312, 50.195312, 49.804688
5371, 90.480780, 48.295550, 49.080190
5372, 90.882091, 48.326604, 49.017822
5373, 90.479495, 48.329064, 49.372440
5374, 90.843463, 48.382790, 49.400055
5375, 90.774041, 48.175593, 49.597524
5376, 89.264102, 50.201598, 48.639093
5377, 89.645531, 50.194482, 48.631982
5378, 89.611874, 50.199588, 49.004303
5379, 89.244980, 50.183035, 48.981806
5380, 89.661285, 49.767843, 48.734196
5381, 89.605654, 50.085985, 49.039965
5382, 89.291929, 49.801178, 49.020113
5383, 90.041969, 50.194482, 48.631982
5384, 90.072855, 50.200160, 49.007923
5385, 90.019824, 49.768867, 48.722243
5386, 90.080003, 50.085812, 49.040338
5387, 89.620637, 50.198770, 49.431244
5388, 89.245311, 50.183184, 49.456122
5389, 89.607926, 50.079485, 49.395727
5390, 89.297511, 49.802196, 49.419149
5391, 90.063482, 50.199008, 49.428407
5392, 90.077978, 50.079800, 49.394629
5393, 89.646984, 50.195260, 49.805465
5394, 89.256788, 50.194288, 49.805917
5395, 89.683243, 49.777417, 49.704645
5396, 90.040516, 50.195260, 49.805465
5397, 89.997563, 49.773819, 49.719637
5398, 88.858112, 50.228796, 49.020150
5399, 88.882879, 49.820834, 49.045361
5400, 88.859611, 50.233884, 49.418367
5401, 88.883055, 49.821731, 49.395098
5402, 89.662046, 50.302841, 48.213395
5403, 89.683651, 49.815369, 48.257439
5404, 89.997826, 50.301387, 48.208661
5405, 89.993568, 49.811135, 48.263102
5406, 90.212148, 49.594800, 50.323252
5407, 91.856292, 48.016459, 47.260899
5408, 91.539414, 47.524874, 47.834588
5409, 91.722274, 48.138589, 47.963241
5410, 91.206627, 48.631892, 47.068707
5411, 91.169496, 48.637037, 47.437725
5412, 91.229929, 48.216795, 47.180745
5413, 91.166719, 48.521935, 47.469085
5414, 91.607723, 48.631224, 47.066884
5415, 91.633007, 48.638019, 47.434668
5416, 91.611952, 48.222296, 47.182166
5417, 91.654895, 48.539483, 47.470050
5418, 91.992802, 48.632198, 47.069903
5419, 91.997468, 48.632043, 47.455852
5420, 92.057348, 48.327732, 47.572900
5421, 91.187596, 48.638046, 47.856540
5422, 91.179523, 48.525343, 47.830781
5423, 91.605754, 48.633325, 47.855536
5424, 91.622562, 48.553804, 47.825337
5425, 92.020917, 48.638847, 47.854018
5426, 91.967269, 48.377775, 47.757185
5427, 91.203982, 48.633803, 48.237208
5428, 91.274440, 48.297463, 48.094479
5429, 91.626868, 48.656196, 48.162813
5430, 91.497700, 48.339689, 48.060451
5431, 91.886821, 48.563922, 48.132086
5432, 91.232306, 48.728886, 46.646316
5433, 91.042746, 48.048094, 46.492030
5434, 91.249049, 48.254047, 46.693383
5435, 91.582484, 48.727830, 46.644272
5436, 91.572171, 48.255678, 46.691262
5437, 91.814503, 48.786210, 46.441949
5438, 91.767495, 48.051573, 46.488386
5439, 92.381597, 48.631578, 47.069507
5440, 92.755064, 48.629247, 47.067455
5441, 92.743788, 48.730052, 47.475912
5442, 92.438112, 48.647765, 47.509451
5443, 92.598968, 48.079078, 47.141723
5444, 92.772647, 48.308821, 47.186228
5445, 92.765810, 48.466325, 47.437554
5446, 92.474811, 48.366802, 47.527470
5447, 93.122904, 48.683600, 47.122465
5448, 92.990296, 48.744034, 47.386923
5449, 93.076545, 48.361733, 47.141592
5450, 92.978265, 48.522250, 47.385867
5451, 92.382845, 48.713624, 47.764827
5452, 92.326420, 48.462375, 47.742035
5453, 92.577233, 48.762743, 46.412265
5454, 92.780787, 48.755185, 46.626319
5455, 92.691358, 48.061002, 46.540468
5456, 92.837521, 48.287350, 46.719492
5457, 93.164402, 48.735357, 46.664370
5458, 93.082785, 48.311760, 46.729607
5459, 93.405838, 48.724166, 46.507586
5460, 93.317926, 48.635420, 47.006762
5461, 93.230430, 48.119436, 46.581680
5462, 93.190918, 48.203271, 47.096870
5463, 91.192727, 48.680997, 48.644455
5464, 91.102727, 48.709379, 49.014482
5465, 91.215693, 48.435153, 48.644178
5466, 91.094199, 48.476240, 49.016458
5467, 91.069699, 48.724325, 49.270686
5468, 91.071009, 48.526169, 49.246891
5469, 91.473445, 48.697554, 48.512739
5470, 91.443902, 48.490696, 48.499698
5471, 8.236767, 51.064771, 48.034554
5472, 7.704869, 50.876918, 47.851360
5473, 8.872073, 51.224205, 48.152400
5474, 9.765625, 51.171875, 48.046875
5475, 8.930979, 51.960205, 48.137931
5476, 8.370561, 51.903220, 47.960176
5477, 9.765625, 51.953125, 48.046875
5478, 8.952627, 51.103637, 48.843507
5479, 8.424875, 50.863854, 48.570405
5480, 9.765625, 51.171875, 48.828125
5481, 9.665668, 52.027991, 48.929734
5482, 9.115765, 51.903225, 48.855993
5483, 8.980615, 52.650864, 48.054750
5484, 8.427623, 52.471607, 47.884995
5485, 9.662639, 52.788643, 48.157465
5486, 9.761868, 53.496221, 48.120900
5487, 9.114315, 53.313274, 47.942974
5488, 9.730867, 52.720644, 48.866100
5489, 9.158659, 52.495638, 48.684233
5490, 9.765625, 51.171875, 49.609375
5491, 9.132461, 51.096651, 49.637845
5492, 9.697601, 51.998149, 49.652692
5493, 9.207379, 51.713006, 49.649261
5494, 9.765625, 51.171875, 50.390625
5495, 9.139902, 51.095692, 50.375583
5496, 9.704197, 51.994440, 50.362130
5497, 9.214418, 51.709079, 50.371642
5498, 10.546875, 51.171875, 48.046875
5499, 11.328125, 51.171875, 48.046875
5500, 10.546875, 51.953125, 48.046875
5501, 11.328125, 51.953125, 48.046875
5502, 10.546875, 51.171875, 48.828125
5503, 11.328125, 51.171875, 48.828125
5504, 10.546875, 51.953125, 48.828125
5505, 11.328125, 51.953125, 48.828125
5506, 10.546875, 52.734375, 48.046875
5507, 11.328125, 52.734375, 48.046875
5508, 10.456492, 53.592101, 48.175415
5509, 11.328125, 53.515625, 48.046875
5510, 10.546875, 52.734375, 48.828125
5511, 11.328125, 52.734375, 48.828125
5512, 10.520731, 53.521023, 48.930776
5513, 9.940984, 53.289272, 48.936628
5514, 11.328125, 53.515625, 48.828125
5515, 10.546875, 51.171875, 49.609375
5516, 11.328125, 51.171875, 49.609375
5517, 10.546875, 51.953125, 49.609375
5518, 11.328125, 51.953125, 49.609375
5519, 10.546875, 51.171875, 50.390625
5520, 11.328125, 51.171875, 50.390625
5521, 10.546875, 51.953125, 50.390625
5522, 11.328125, 51.953125, 50.390625
5523, 10.546875, 52.734375, 49.609375
5524, 9.879527, 52.715653, 49.649310
5525, 11.328125, 52.734375, 49.609375
5526, 10.567873, 53.470920, 49.652686
5527, 10.039662, 53.217156, 49.663016
5528, 11.328125, 53.515625, 49.609375
5529, 10.546875, 52.734375, 50.390625
5530, 9.889879, 52.708707, 50.371578
5531, 11.328125, 52.734375, 50.390625
5532, 10.572304, 53.466900, 50.365779
5533, 10.047739, 53.213103, 50.359018
5534, 11.328125, 53.515625, 50.390625
5535, 10.567106, 54.253328, 48.136745
5536, 9.940926, 54.113056, 47.982244
5537, 11.263937, 54.290581, 48.155328
5538, 11.325408, 54.772902, 48.109147
5539, 10.765594, 54.720300, 47.976219
5540, 11.307258, 54.269419, 48.862070
5541, 10.741872, 54.073968, 48.941631
5542, 11.470375, 54.724455, 48.651311
5543, 11.302155, 54.128366, 49.644639
5544, 10.806656, 53.975795, 49.665240
5545, 11.302308, 54.124943, 50.377084
5546, 10.804830, 53.974006, 50.364064
5547, 85.546875, 54.296875, 48.046875
5548, 86.328125, 54.296875, 48.046875
5549, 85.634352, 54.934845, 48.217574
5550, 86.358832, 54.906630, 48.187471
5551, 85.546875, 54.296875, 48.828125
5552, 86.328125, 54.296875, 48.828125
5553, 85.640975, 54.847709, 48.919052
5554, 86.346141, 54.805829, 48.903686
5555, 87.109375, 54.296875, 48.046875
5556, 87.933878, 54.334943, 48.129122
5557, 87.093796, 54.867503, 48.120179
5558, 87.814635, 54.818649, 48.038277
5559, 87.174561, 54.342430, 48.910931
5560, 87.889438, 54.278862, 48.837902
5561, 87.043085, 54.759246, 48.829408
5562, 87.639233, 54.748475, 48.638814
5563, 85.546875, 54.296875, 49.609375
5564, 86.328125, 54.296875, 49.609375
5565, 85.612725, 54.813142, 49.632399
5566, 86.304577, 54.759621, 49.639163
5567, 85.546875, 54.296875, 50.390625
5568, 86.328125, 54.296875, 50.390625
5569, 85.614485, 54.810483, 50.375713
5570, 86.306098, 54.758749, 50.372393
5571, 87.159809, 54.307603, 49.642129
5572, 87.905001, 54.151195, 49.630599
5573, 86.879875, 54.710993, 49.635712
5574, 87.158580, 54.309970, 50.367254
5575, 87.904857, 54.157875, 50.375885
5576, 86.880741, 54.713505, 50.379931
5577, 88.671875, 51.171875, 47.265625
5578, 88.674109, 51.148973, 48.046806
5579, 89.453125, 51.171875, 47.265625
5580, 89.450400, 51.220110, 48.005649
5581, 88.671875, 51.953125, 47.265625
5582, 88.670423, 51.973635, 48.046579
5583, 89.453125, 51.953125, 47.265625
5584, 89.430817, 51.909293, 47.929973
5585, 88.630332, 51.189924, 48.788610
5586, 88.626983, 51.934117, 48.787083
5587, 90.140608, 51.210786, 47.186624
5588, 90.135481, 51.286158, 48.040892
5589, 90.709322, 50.548290, 47.478704
5590, 90.424500, 50.225735, 47.476411
5591, 90.401488, 50.621205, 47.163088
5592, 90.825051, 50.552391, 47.444875
5593, 90.818781, 50.185389, 47.442672
5594, 90.819288, 50.194083, 47.069288
5595, 90.806036, 50.555977, 47.066978
5596, 90.705079, 51.013950, 47.470285
5597, 90.393533, 50.934784, 47.171658
5598, 90.824997, 51.009618, 47.444691
5599, 90.801375, 51.010879, 47.066181
5600, 90.410841, 51.337025, 47.445191
5601, 90.819097, 51.378387, 47.378659
5602, 90.858311, 51.341096, 47.067049
5603, 90.713926, 50.542684, 47.844696
5604, 90.415260, 50.230122, 47.818560
5605, 90.824896, 50.547542, 47.870777
5606, 90.816591, 50.178136, 47.880991
5607, 90.713417, 51.025399, 47.847202
5608, 90.823964, 51.021926, 47.877677
5609, 90.387944, 51.339354, 47.833527
5610, 90.766151, 51.406739, 47.908038
5611, 90.426677, 50.636754, 48.157698
5612, 90.820260, 50.584484, 48.242965
5613, 90.819903, 50.194698, 48.242802
5614, 90.431675, 50.952467, 48.155738
5615, 90.820260, 50.978016, 48.242965
5616, 90.675283, 51.454776, 48.083339
5617, 90.458131, 50.553392, 48.627551
5618, 90.820312, 50.585938, 48.632812
5619, 90.458139, 51.010951, 48.627782
5620, 90.820312, 50.976562, 48.632812
5621, 90.430302, 51.367802, 48.632403
5622, 90.671894, 51.399872, 48.476293
5623, 90.238031, 50.411862, 46.489407
5624, 90.442999, 50.618248, 46.700142
5625, 91.004110, 50.343661, 46.437911
5626, 90.857069, 50.585593, 46.670793
5627, 90.443166, 50.938070, 46.697217
5628, 90.852051, 50.977180, 46.665070
5629, 90.226680, 51.158289, 46.476904
5630, 90.946935, 51.250458, 46.388190
5631, 90.497690, 51.741680, 47.533923
5632, 90.275981, 52.001969, 47.303422
5633, 91.036944, 51.715705, 47.511827
5634, 91.224108, 51.976596, 47.339588
5635, 90.501684, 51.752482, 47.727974
5636, 90.952030, 51.686581, 47.775664
5637, 90.286046, 52.101748, 47.902526
5638, 91.021046, 52.030746, 48.077553
5639, 89.605089, 50.604185, 48.520951
5640, 89.298797, 50.583791, 48.235858
5641, 89.612054, 50.566975, 48.637121
5642, 89.241364, 50.551846, 48.628920
5643, 90.077553, 50.611632, 48.510189
5644, 90.077038, 50.568582, 48.636625
5645, 89.608797, 50.960646, 48.514249
5646, 89.304358, 50.980883, 48.238776
5647, 89.619238, 50.989751, 48.637647
5648, 89.241801, 51.011126, 48.628871
5649, 90.077207, 50.954540, 48.505720
5650, 90.068333, 50.992982, 48.636209
5651, 89.683105, 51.260190, 48.216431
5652, 89.646984, 51.367965, 48.632760
5653, 89.256788, 51.368417, 48.631788
5654, 89.974477, 51.254255, 48.217583
5655, 90.040516, 51.367965, 48.632760
5656, 88.882770, 50.616455, 48.259999
5657, 88.836119, 50.608467, 48.726433
5658, 88.881644, 50.945124, 48.259269
5659, 88.836385, 50.954297, 48.726766
5660, 88.667495, 52.713865, 48.040186
5661, 89.499748, 52.810454, 48.006070
5662, 88.671875, 53.515625, 48.046875
5663, 89.585725, 53.396197, 48.069357
5664, 88.619468, 52.764930, 48.787876
5665, 88.731236, 53.551600, 48.915694
5666, 90.306403, 52.832316, 48.291702
5667, 90.963126, 52.520948, 48.272318
5668, 90.157383, 53.368429, 48.120949
5669, 90.880668, 53.307383, 47.887506
5670, 89.611243, 52.168242, 48.516008
5671, 89.302199, 52.161562, 48.228607
5672, 89.715657, 51.888720, 48.218813
5673, 89.615881, 52.131513, 48.636923
5674, 89.235774, 52.103006, 48.626388
5675, 89.256788, 51.756583, 48.631788
5676, 89.646984, 51.757035, 48.632760
5677, 90.079075, 52.152817, 48.489110
5678, 89.984996, 51.996643, 48.225683
5679, 90.090572, 52.103428, 48.630667
5680, 90.040516, 51.757035, 48.632760
5681, 90.370547, 52.206359, 48.251179
5682, 90.438310, 52.044378, 48.541654
5683, 90.449490, 51.691994, 48.536926
5684, 89.553031, 52.531983, 48.488885
5685, 89.301204, 52.546723, 48.253366
5686, 89.558820, 52.565205, 48.641964
5687, 89.237320, 52.582836, 48.627573
5688, 90.093363, 52.535500, 48.564209
5689, 90.077699, 52.552328, 48.643597
5690, 90.357662, 52.500732, 48.395815
5691, 90.436306, 52.628060, 48.707844
5692, 89.649410, 52.790539, 48.255054
5693, 89.577621, 52.912351, 48.664219
5694, 89.270509, 52.917342, 48.646195
5695, 90.079232, 52.800200, 48.396495
5696, 90.092323, 52.944586, 48.714624
5697, 90.332886, 52.919382, 48.602712
5698, 88.887329, 52.187662, 48.261826
5699, 88.838689, 52.170873, 48.729701
5700, 88.883675, 52.508359, 48.265559
5701, 88.839887, 52.515625, 48.730988
5702, 89.735088, 53.221425, 48.307994
5703, 89.667066, 53.338188, 48.953061
5704, 89.444163, 53.546291, 48.869376
5705, 90.006812, 53.225559, 48.373162
5706, 90.059859, 53.349170, 48.820815
5707, 90.181434, 53.490966, 48.716809
5708, 88.639721, 51.182658, 49.646761
5709, 89.147039, 50.545687, 49.040891
5710, 89.262497, 50.552742, 49.007238
5711, 89.147351, 51.016569, 49.041595
5712, 89.262465, 51.009879, 49.007355
5713, 88.865508, 51.334112, 49.038133
5714, 89.256110, 51.377720, 49.003642
5715, 89.141030, 50.545904, 49.396204
5716, 89.261529, 50.561554, 49.428131
5717, 89.141171, 51.015711, 49.395555
5718, 89.261513, 51.001088, 49.428056
5719, 88.863119, 51.330858, 49.401495
5720, 89.256308, 51.376811, 49.432543
5721, 88.837814, 50.625043, 49.713279
5722, 89.257760, 50.584484, 49.805465
5723, 88.837461, 50.938884, 49.714754
5724, 89.257760, 50.978016, 49.805465
5725, 89.257403, 51.367802, 49.805302
5726, 88.633677, 51.944355, 49.648969
5727, 88.636663, 51.181279, 50.350386
5728, 88.635464, 51.940962, 50.351989
5729, 88.627249, 52.752913, 49.645263
5730, 89.146382, 52.108116, 49.040071
5731, 88.862994, 51.791831, 49.038119
5732, 89.262443, 52.115085, 49.007324
5733, 89.256117, 51.747260, 49.003691
5734, 89.141775, 52.578205, 49.038586
5735, 89.262425, 52.571641, 49.007110
5736, 88.861705, 52.888913, 49.016985
5737, 89.255324, 52.944064, 48.976496
5738, 89.143223, 52.110633, 49.398366
5739, 88.862910, 51.793651, 49.399837
5740, 89.262687, 52.118917, 49.427162
5741, 89.256116, 51.747387, 49.433874
5742, 89.139875, 52.579650, 49.396655
5743, 89.261152, 52.566578, 49.431016
5744, 88.862000, 52.882088, 49.411920
5745, 89.254861, 52.944684, 49.445534
5746, 88.844297, 52.186774, 49.710390
5747, 89.257760, 52.146984, 49.805465
5748, 89.257403, 51.757198, 49.805302
5749, 88.838762, 52.499945, 49.705393
5750, 89.257760, 52.540516, 49.805465
5751, 89.257403, 52.930302, 49.805302
5752, 88.907076, 53.327649, 49.074446
5753, 89.308806, 53.330080, 49.037494
5754, 88.900915, 53.302252, 49.408746
5755, 89.275536, 53.299429, 49.444530
5756, 88.721549, 53.486136, 49.578711
5757, 89.325815, 53.450739, 49.612641
5758, 88.629223, 52.753206, 50.355064
5759, 88.722979, 53.496107, 50.415348
5760, 91.775658, 52.012251, 47.275992
5761, 91.835302, 52.105812, 47.768636
5762, 91.595800, 52.499891, 47.735854
5763, 91.191823, 51.447624, 47.545140
5764, 91.369932, 51.688539, 47.455869
5765, 91.179704, 51.344159, 47.455632
5766, 91.139531, 51.324469, 47.121545
5767, 91.516097, 51.412622, 47.535491
5768, 91.410206, 51.680151, 47.456465
5769, 91.560026, 51.314106, 47.463174
5770, 91.561565, 51.284930, 47.129385
5771, 92.003092, 51.701195, 47.477396
5772, 91.971835, 51.384703, 47.372915
5773, 91.992500, 51.374065, 47.068557
5774, 91.047639, 51.452421, 47.904400
5775, 91.001915, 51.402365, 47.930549
5776, 91.719098, 51.410537, 47.958531
5777, 91.750570, 51.353855, 47.979635
5778, 92.011729, 51.714473, 47.574412
5779, 92.164578, 51.415962, 47.806846
5780, 91.139693, 51.846874, 48.253972
5781, 90.905724, 51.459691, 48.261601
5782, 91.624529, 51.755928, 48.225817
5783, 91.771949, 51.523102, 48.299718
5784, 92.142094, 51.698675, 48.103615
5785, 90.928517, 51.667094, 48.515689
5786, 90.566198, 51.692130, 48.533478
5787, 90.931781, 51.477545, 48.520597
5788, 91.606616, 51.685037, 48.547329
5789, 91.698975, 51.458520, 48.578112
5790, 91.170840, 51.941445, 46.506649
5791, 91.366702, 51.681744, 46.724934
5792, 91.221466, 51.269994, 46.644389
5793, 91.471710, 51.678704, 46.726554
5794, 91.550616, 51.253619, 46.645932
5795, 91.713484, 51.915083, 46.518179
5796, 91.852258, 51.253812, 46.402844
5797, 91.005757, 51.948538, 48.491201
5798, 90.828432, 52.152802, 48.332589
5799, 90.954735, 51.893293, 48.560834
5800, 90.574246, 51.993022, 48.550289
5801, 91.059962, 52.311788, 48.536332
5802, 90.898474, 52.442151, 48.423642
5803, 91.036150, 52.298026, 48.580492
5804, 90.818771, 52.500389, 48.594536
5805, 91.115404, 52.350956, 48.454426
5806, 90.856629, 52.638502, 48.564965
5807, 92.741634, 51.525582, 47.479671
5808, 92.461535, 51.564595, 47.462074
5809, 92.600570, 51.916353, 47.146566
5810, 92.764874, 51.691625, 47.191177
5811, 92.746773, 51.286794, 47.474886
5812, 92.382812, 51.367188, 47.460938
5813, 92.381597, 51.368422, 47.069507
5814, 92.756134, 51.370284, 47.067804
5815, 92.977614, 51.475067, 47.397970
5816, 93.073548, 51.632406, 47.151618
5817, 92.998656, 51.258777, 47.391720
5818, 93.129422, 51.318717, 47.121201
5819, 92.635021, 51.445943, 47.665933
5820, 92.423539, 51.573362, 47.633427
5821, 92.625796, 51.246987, 47.706419
5822, 92.395526, 51.307140, 47.764890
5823, 92.690177, 51.934458, 46.540475
5824, 92.835062, 51.710388, 46.718041
5825, 92.580265, 51.242177, 46.414712
5826, 92.782759, 51.243423, 46.626273
5827, 93.084794, 51.684539, 46.725716
5828, 93.163456, 51.260129, 46.664911
5829, 93.188373, 51.781957, 47.097936
5830, 93.230518, 51.869801, 46.581368
5831, 93.310016, 51.358340, 47.007445
5832, 93.398310, 51.271572, 46.511561
5833, 88.566984, 54.266741, 48.125279
5834, 89.400538, 54.069351, 47.973502
5835, 88.430308, 54.787971, 47.919053
5836, 88.640883, 54.084977, 48.824437
5837, 89.237640, 54.000078, 48.672711
5838, 90.005065, 54.023245, 47.899295
5839, 88.484390, 54.018841, 49.621335
5840, 88.485229, 54.027372, 50.380246
5841, 89.669760, 53.122525, 49.062513
5842, 89.652804, 52.933249, 49.001725
5843, 89.942971, 53.064529, 49.102037
5844, 90.057941, 52.879708, 49.078459
5845, 89.676891, 53.114288, 49.411899
5846, 89.743677, 52.952732, 49.470392
5847, 89.970527, 53.053759, 49.334549
5848, 90.059619, 52.879243, 49.399465
5849, 89.648296, 53.332378, 49.613735
5850, 89.726980, 52.966870, 49.791281
5851, 9.091430, 46.631131, 52.037586
5852, 9.731879, 46.453549, 51.860312
5853, 9.638965, 47.181621, 51.824422
5854, 8.946521, 47.314107, 51.890539
5855, 11.493352, 45.267159, 51.362768
5856, 11.314257, 45.708402, 51.145133
5857, 11.337611, 45.203627, 51.919785
5858, 11.256466, 45.660201, 51.854558
5859, 10.708656, 45.869019, 51.057071
5860, 11.328125, 46.484375, 51.171875
5861, 10.485596, 46.438429, 51.063670
5862, 9.872781, 46.644776, 51.046577
5863, 10.546875, 47.265625, 51.171875
5864, 9.690848, 47.256865, 51.090128
5865, 11.328125, 47.265625, 51.171875
5866, 10.544500, 45.705299, 51.852857
5867, 11.328125, 46.484375, 51.953125
5868, 10.431412, 46.372052, 51.813337
5869, 10.546875, 47.265625, 51.953125
5870, 11.328125, 47.265625, 51.953125
5871, 10.747049, 45.210046, 52.051560
5872, 9.916154, 45.867002, 52.014198
5873, 9.240765, 47.560707, 50.617976
5874, 9.150034, 47.505929, 51.126351
5875, 9.765625, 48.046875, 51.171875
5876, 9.071954, 48.075720, 51.096604
5877, 9.765625, 48.828125, 51.171875
5878, 8.907833, 48.865574, 51.137191
5879, 9.765625, 48.046875, 51.953125
5880, 8.897184, 48.026360, 51.838975
5881, 9.765625, 48.828125, 51.953125
5882, 8.841839, 48.761224, 51.827033
5883, 9.765625, 49.609375, 51.171875
5884, 8.907151, 49.610988, 51.142228
5885, 9.765625, 50.390625, 51.171875
5886, 8.928157, 50.368449, 51.152497
5887, 8.395307, 49.117609, 51.414912
5888, 8.417442, 49.662607, 51.440807
5889, 8.209080, 48.937629, 51.931482
5890, 8.984375, 49.609375, 51.953125
5891, 8.219229, 49.634522, 51.964185
5892, 9.765625, 49.609375, 51.953125
5893, 8.428148, 50.324334, 51.449107
5894, 8.984375, 50.390625, 51.953125
5895, 8.228644, 50.367235, 51.971857
5896, 9.765625, 50.390625, 51.953125
5897, 8.401914, 47.507601, 52.081393
5898, 8.334912, 48.082910, 52.009711
5899, 7.686102, 49.124453, 52.127739
5900, 7.704209, 49.670341, 52.174006
5901, 7.711569, 50.336506, 52.179659
5902, 10.546875, 48.046875, 51.171875
5903, 11.328125, 48.046875, 51.171875
5904, 10.546875, 48.828125, 51.171875
5905, 11.328125, 48.828125, 51.171875
5906, 10.546875, 48.046875, 51.953125
5907, 11.328125, 48.046875, 51.953125
5908, 10.546875, 48.828125, 51.953125
5909, 11.328125, 48.828125, 51.953125
5910, 10.546875, 49.609375, 51.171875
5911, 11.328125, 49.609375, 51.171875
5912, 10.546875, 50.390625, 51.171875
5913, 11.328125, 50.390625, 51.171875
5914, 10.546875, 49.609375, 51.953125
5915, 11.328125, 49.609375, 51.953125
5916, 10.546875, 50.390625, 51.953125
5917, 11.328125, 50.390625, 51.953125
5918, 88.697695, 45.861358, 51.177818
5919, 88.779442, 46.391746, 51.078877
5920, 88.671875, 47.265625, 51.171875
5921, 89.462304, 46.475096, 51.160976
5922, 89.453125, 47.265625, 51.171875
5923, 88.677108, 45.684843, 51.900056
5924, 88.671875, 46.484375, 51.953125
5925, 89.266741, 45.952111, 51.334376
5926, 89.439087, 45.866232, 51.889173
5927, 89.528058, 46.422160, 51.843774
5928, 88.671875, 47.265625, 51.953125
5929, 89.453125, 47.265625, 51.953125
5930, 89.946035, 46.759620, 50.624175
5931, 90.027111, 46.687038, 51.158732
5932, 90.247539, 47.271816, 51.156003
5933, 90.220166, 46.489001, 51.887455
5934, 90.317203, 47.202093, 51.843815
5935, 88.517027, 45.214951, 52.075781
5936, 90.032728, 45.911229, 52.042413
5937, 90.863150, 46.665236, 52.045940
5938, 91.000210, 47.336303, 51.912919
5939, 88.671875, 48.046875, 51.171875
5940, 89.453125, 48.046875, 51.171875
5941, 88.671875, 48.828125, 51.171875
5942, 89.453125, 48.828125, 51.171875
5943, 88.671875, 48.046875, 51.953125
5944, 89.453125, 48.046875, 51.953125
5945, 88.671875, 48.828125, 51.953125
5946, 89.453125, 48.828125, 51.953125
5947, 90.303490, 48.013030, 51.053684
5948, 90.180050, 48.794546, 51.213719
5949, 90.234375, 48.046875, 51.953125
5950, 90.814496, 47.486373, 51.304499
5951, 90.877885, 48.079261, 51.136901
5952, 91.095018, 48.052676, 51.825841
5953, 90.218734, 48.852808, 51.960160
5954, 88.667213, 49.605013, 51.159865
5955, 89.431555, 49.567339, 51.214209
5956, 88.625128, 50.367589, 51.212969
5957, 88.671875, 49.609375, 51.953125
5958, 89.489892, 49.603008, 51.953168
5959, 88.671516, 50.412868, 51.953584
5960, 90.207989, 49.593954, 51.243407
5961, 90.688904, 48.976938, 50.599966
5962, 90.421284, 48.691997, 50.589117
5963, 90.397129, 49.057287, 50.294531
5964, 90.923055, 48.989362, 50.546377
5965, 90.865801, 48.634479, 50.538582
5966, 90.760117, 48.657694, 50.244054
5967, 90.865107, 49.012569, 50.216203
5968, 90.707908, 49.452485, 50.607853
5969, 90.403062, 49.365990, 50.275127
5970, 90.823700, 49.438473, 50.571717
5971, 90.881284, 49.370910, 50.154022
5972, 90.412005, 49.787978, 50.607015
5973, 90.819559, 49.811219, 50.575149
5974, 90.819903, 49.805302, 50.194698
5975, 90.701211, 48.982699, 50.962070
5976, 90.421870, 48.678546, 50.981916
5977, 90.824639, 48.991418, 50.992963
5978, 90.816899, 48.615041, 51.021198
5979, 90.708236, 49.456443, 50.958211
5980, 90.823931, 49.442556, 50.993486
5981, 90.413748, 49.790303, 50.953868
5982, 90.819458, 49.812076, 50.988776
5983, 90.396831, 49.037670, 51.265908
5984, 90.804493, 48.988924, 51.370784
5985, 90.825387, 48.637818, 51.361342
5986, 90.393720, 49.389002, 51.279411
5987, 90.804102, 49.448645, 51.371032
5988, 90.819288, 49.805917, 51.368212
5989, 90.437019, 50.194444, 50.573760
5990, 90.430302, 50.194903, 50.194698
5991, 90.820312, 50.195312, 50.585938
5992, 90.820312, 50.195312, 50.195312
5993, 90.437996, 50.194286, 50.990018
5994, 90.820312, 50.195312, 50.976562
5995, 90.430917, 50.194288, 51.368212
5996, 90.819698, 50.194698, 51.367597
5997, 90.479284, 48.312071, 50.618196
5998, 90.870856, 48.372578, 50.577754
5999, 90.790298, 48.174237, 50.382625
6000, 90.484406, 48.279624, 50.903414
6001, 90.921099, 48.316265, 50.955566
6002, 90.438256, 49.055830, 51.731341
6003, 90.864737, 49.015194, 51.762148
6004, 91.000382, 48.773359, 52.007322
6005, 90.445917, 49.381984, 51.722594
6006, 90.869471, 49.423363, 51.759316
6007, 90.212149, 49.597998, 51.932560
6008, 91.003390, 49.667744, 51.998593
6009, 89.256788, 50.194288, 50.194083
6010, 89.646984, 50.195260, 50.194535
6011, 89.620516, 50.198852, 50.568764
6012, 89.245907, 50.183316, 50.545479
6013, 89.684604, 49.776458, 50.293364
6014, 89.607637, 50.080472, 50.604593
6015, 89.296348, 49.799979, 50.579733
6016, 90.040516, 50.195260, 50.194535
6017, 90.063620, 50.198990, 50.571783
6018, 89.996817, 49.774817, 50.278991
6019, 90.080099, 50.082614, 50.604813
6020, 89.611774, 50.199584, 50.995773
6021, 89.245475, 50.182565, 51.018122
6022, 89.606883, 50.085764, 50.959811
6023, 89.291409, 49.799335, 50.980983
6024, 90.072733, 50.200149, 50.992280
6025, 90.080131, 50.084562, 50.960750
6026, 89.645531, 50.194482, 51.368018
6027, 89.264102, 50.201598, 51.360907
6028, 89.662297, 49.770572, 51.267932
6029, 90.041969, 50.194482, 51.368018
6030, 90.021021, 49.765180, 51.276592
6031, 88.861057, 50.233479, 50.581401
6032, 88.882398, 49.820155, 50.605700
6033, 88.857688, 50.230761, 50.978738
6034, 88.884022, 49.821755, 50.954800
6035, 89.425742, 50.345134, 52.008914
6036, 89.665527, 50.293279, 51.792453
6037, 89.692298, 49.814790, 51.739730
6038, 90.026458, 50.290724, 51.796091
6039, 90.002503, 49.819525, 51.737561
6040, 90.263744, 50.347524, 52.004700
6041, 91.012554, 50.347980, 51.983888
6042, 91.127282, 48.720617, 50.690842
6043, 91.206580, 48.722351, 50.981158
6044, 91.117305, 48.504793, 50.717774
6045, 91.162473, 48.460926, 50.945153
6046, 91.242153, 48.655664, 51.283514
6047, 91.267210, 48.358867, 51.237100
6048, 91.260836, 48.764817, 51.721250
6049, 91.342536, 48.286755, 51.582200
6050, 91.511756, 48.741399, 51.325976
6051, 91.587734, 48.831662, 51.698107
6052, 91.499677, 48.458270, 51.336896
6053, 91.571124, 48.373844, 51.592152
6054, 91.792674, 48.890123, 51.917120
6055, 91.625204, 48.136222, 51.928900
6056, 91.909403, 49.122144, 51.644488
6057, 91.917141, 49.381069, 51.649941
6058, 91.821294, 49.675213, 51.937328
6059, 92.248536, 49.111060, 52.038666
6060, 92.186345, 49.192644, 51.797606
6061, 92.192823, 49.375718, 51.790541
6062, 92.255065, 49.615463, 52.062716
6063, 91.562374, 47.518973, 52.056194
6064, 91.183645, 49.016847, 51.360711
6065, 91.169402, 49.047466, 51.484916
6066, 91.612504, 49.067402, 51.322433
6067, 91.643841, 49.048734, 51.497677
6068, 91.179775, 49.434616, 51.363707
6069, 91.164949, 49.400385, 51.486767
6070, 91.627228, 49.437805, 51.323617
6071, 91.645602, 49.407694, 51.472862
6072, 91.852476, 49.192875, 51.441989
6073, 91.864484, 49.446745, 51.460429
6074, 91.208074, 49.806229, 51.367321
6075, 91.240189, 49.687808, 51.779874
6076, 91.604608, 49.791497, 51.374799
6077, 91.575735, 49.698308, 51.764087
6078, 91.827123, 49.776943, 51.537683
6079, 91.819565, 50.323171, 51.943974
6080, 92.252905, 50.382596, 52.063785
6081, 9.765625, 51.171875, 51.171875
6082, 8.963474, 51.104811, 51.166415
6083, 9.663693, 52.028106, 51.064095
6084, 9.131793, 51.897110, 51.152561
6085, 8.430668, 50.864409, 51.432670
6086, 8.876560, 51.222130, 51.845953
6087, 8.244706, 51.064556, 51.959217
6088, 9.765625, 51.171875, 51.953125
6089, 9.765625, 51.953125, 51.953125
6090, 8.933450, 51.964121, 51.864432
6091, 9.736621, 52.712331, 51.143244
6092, 9.173409, 52.489753, 51.321311
6093, 9.673298, 52.777819, 51.853170
6094, 8.995430, 52.648927, 51.945174
6095, 7.704916, 50.881087, 52.137310
6096, 8.374338, 51.906627, 52.041823
6097, 8.435081, 52.476319, 52.113410
6098, 9.772525, 53.484246, 51.895702
6099, 9.128707, 53.321957, 52.057068
6100, 10.546875, 51.171875, 51.171875
6101, 11.328125, 51.171875, 51.171875
6102, 10.546875, 51.953125, 51.171875
6103, 11.328125, 51.953125, 51.171875
6104, 10.546875, 51.171875, 51.953125
6105, 11.328125, 51.171875, 51.953125
6106, 10.546875, 51.953125, 51.953125
6107, 11.328125, 51.953125, 51.953125
6108, 10.546875, 52.734375, 51.171875
6109, 11.328125, 52.734375, 51.171875
6110, 10.525789, 53.510128, 51.084797
6111, 9.944498, 53.284739, 51.078358
6112, 11.328125, 53.515625, 51.171875
6113, 10.546875, 52.734375, 51.953125
6114, 11.328125, 52.734375, 51.953125
6115, 10.465855, 53.577683, 51.839469
6116, 11.328125, 53.515625, 51.953125
6117, 11.308170, 54.255899, 51.154468
6118, 10.744609, 54.064039, 51.085682
6119, 11.262160, 54.293838, 51.865056
6120, 10.575288, 54.239968, 51.892152
6121, 11.470764, 54.713441, 51.374463
6122, 11.326566, 54.766155, 51.927941
6123, 9.947766, 54.090613, 52.058283
6124, 10.753907, 54.738564, 52.062472
6125, 85.546875, 54.296875, 51.171875
6126, 86.328125, 54.296875, 51.171875
6127, 85.649947, 54.858081, 51.078809
6128, 86.351454, 54.818191, 51.097939
6129, 85.546875, 54.296875, 51.953125
6130, 86.328125, 54.296875, 51.953125
6131, 85.645385, 54.944911, 51.775393
6132, 86.366285, 54.922949, 51.804493
6133, 87.172950, 54.357800, 51.090892
6134, 87.888341, 54.299456, 51.167425
6135, 87.038948, 54.779196, 51.184134
6136, 87.109375, 54.296875, 51.953125
6137, 87.939008, 54.363590, 51.865894
6138, 87.099911, 54.889826, 51.868773
6139, 87.631667, 54.775558, 51.369025
6140, 87.810799, 54.843410, 51.957306
6141, 88.630415, 51.189153, 51.211956
6142, 89.141343, 50.548532, 50.601662
6143, 88.837809, 50.624660, 50.289876
6144, 89.262539, 50.556680, 50.572583
6145, 89.257760, 50.584484, 50.194535
6146, 89.142910, 51.015512, 50.605630
6147, 88.844269, 50.937946, 50.290243
6148, 89.261204, 51.004617, 50.568922
6149, 89.257760, 50.978016, 50.194535
6150, 88.863711, 51.331376, 50.599710
6151, 89.256112, 51.377580, 50.566100
6152, 89.257403, 51.367802, 50.194698
6153, 89.146653, 50.546280, 50.958882
6154, 89.262562, 50.552656, 50.992640
6155, 89.146576, 51.016236, 50.959790
6156, 89.262544, 51.010038, 50.992186
6157, 88.864792, 51.334352, 50.961865
6158, 89.256120, 51.377732, 50.996295
6159, 88.836936, 50.609869, 51.272617
6160, 89.241287, 50.552139, 51.371085
6161, 88.837090, 50.952960, 51.271836
6162, 89.242526, 51.009509, 51.370854
6163, 89.256788, 51.368417, 51.368212
6164, 88.881366, 50.616924, 51.742153
6165, 89.296066, 50.585806, 51.767173
6166, 88.881076, 50.946110, 51.738904
6167, 89.299441, 50.978187, 51.764974
6168, 88.673660, 51.147668, 51.950209
6169, 89.438933, 51.214985, 51.996701
6170, 88.629928, 51.933521, 51.210705
6171, 88.670614, 51.972880, 51.954678
6172, 88.623363, 52.763851, 51.208305
6173, 89.142558, 52.111924, 50.602302
6174, 88.862373, 51.793004, 50.600964
6175, 88.837516, 52.189304, 50.286913
6176, 89.262677, 52.118913, 50.572888
6177, 89.256107, 51.747350, 50.566183
6178, 89.257403, 51.757198, 50.194698
6179, 89.257760, 52.146984, 50.194535
6180, 89.139299, 52.578291, 50.604749
6181, 88.839293, 52.501771, 50.293798
6182, 89.261191, 52.566727, 50.568920
6183, 89.257760, 52.540516, 50.194535
6184, 88.863079, 52.881388, 50.587371
6185, 89.254984, 52.944026, 50.555803
6186, 89.257403, 52.930302, 50.194698
6187, 89.145090, 52.110505, 50.958476
6188, 88.865023, 51.792186, 50.962851
6189, 89.262595, 52.114934, 50.992650
6190, 89.256108, 51.747258, 50.996293
6191, 89.143382, 52.577733, 50.960362
6192, 89.262308, 52.571659, 50.992778
6193, 88.861367, 52.888243, 50.985251
6194, 89.250731, 52.942846, 51.024263
6195, 88.838424, 52.173129, 51.272878
6196, 89.242932, 52.117041, 51.370793
6197, 89.256788, 51.756583, 51.368212
6198, 88.838543, 52.516167, 51.271567
6199, 89.240163, 52.576011, 51.371360
6200, 89.269018, 52.918212, 51.356032
6201, 88.903164, 53.302607, 50.592447
6202, 89.271420, 53.298380, 50.553454
6203, 89.336359, 53.452575, 50.383727
6204, 88.908167, 53.330413, 50.926657
6205, 89.314253, 53.312460, 50.984072
6206, 88.735976, 53.555518, 51.077256
6207, 89.446875, 53.521243, 51.167740
6208, 88.882950, 52.179875, 51.739708
6209, 89.297861, 52.147372, 51.763808
6210, 89.438522, 51.909129, 52.002639
6211, 88.880547, 52.510110, 51.739766
6212, 89.301641, 52.544350, 51.761758
6213, 88.669135, 52.714116, 51.955403
6214, 89.442322, 52.795295, 52.005130
6215, 88.671875, 53.515625, 51.953125
6216, 90.246820, 51.210338, 51.993222
6217, 89.615555, 50.569636, 51.362606
6218, 89.606810, 50.602693, 51.481465
6219, 90.072426, 50.570360, 51.362481
6220, 90.079987, 50.602763, 51.478206
6221, 90.440981, 50.564788, 51.369092
6222, 90.395885, 50.602367, 51.762176
6223, 89.624016, 50.990672, 51.363464
6224, 89.609515, 50.958648, 51.487284
6225, 90.067219, 50.993757, 51.363731
6226, 90.077213, 50.955775, 51.482467
6227, 90.440072, 50.996390, 51.368893
6228, 90.392839, 50.963799, 51.758169
6229, 89.646984, 51.367965, 51.367240
6230, 89.688526, 51.270939, 51.785508
6231, 90.040516, 51.367965, 51.367240
6232, 89.998946, 51.273963, 51.787405
6233, 90.430302, 51.367802, 51.367597
6234, 91.002598, 51.211615, 51.978879
6235, 90.257712, 51.919998, 51.998060
6236, 90.973799, 51.947745, 51.991394
6237, 89.542331, 53.509661, 51.939235
6238, 90.289672, 52.850134, 51.906619
6239, 89.646984, 51.757035, 51.367240
6240, 89.620885, 52.131083, 51.363858
6241, 89.695259, 51.859210, 51.791109
6242, 89.609910, 52.169065, 51.484785
6243, 90.040516, 51.757035, 51.367240
6244, 90.071566, 52.123854, 51.364137
6245, 89.996925, 51.877252, 51.787528
6246, 90.079725, 52.155003, 51.493949
6247, 90.430302, 51.757198, 51.367597
6248, 90.440608, 52.124308, 51.369339
6249, 90.385949, 52.159131, 51.733962
6250, 89.609299, 52.560262, 51.363194
6251, 89.598292, 52.521229, 51.481692
6252, 90.073770, 52.555959, 51.360123
6253, 90.091402, 52.531803, 51.459732
6254, 90.429688, 52.539062, 51.367188
6255, 90.407681, 52.559370, 51.694157
6256, 89.603689, 52.911465, 51.343634
6257, 89.652389, 52.814146, 51.790830
6258, 90.072315, 52.912862, 51.338931
6259, 90.076397, 52.861038, 51.751261
6260, 90.332216, 52.874869, 51.347194
6261, 89.661206, 53.263866, 51.057306
6262, 89.718348, 53.262794, 51.720161
6263, 89.980771, 53.247046, 51.061345
6264, 89.980007, 53.247049, 51.700762
6265, 90.162453, 53.413035, 51.196164
6266, 90.144204, 53.450989, 51.914918
6267, 90.982758, 52.675673, 51.950985
6268, 90.833523, 53.326985, 52.059806
6269, 91.930049, 50.594581, 51.669891
6270, 91.948736, 50.908565, 51.708633
6271, 91.801474, 51.128721, 51.937837
6272, 92.190556, 50.621054, 51.804359
6273, 92.182383, 50.827860, 51.817042
6274, 92.254260, 50.893620, 52.050510
6275, 91.208075, 50.193770, 51.367321
6276, 91.182910, 50.568366, 51.363508
6277, 90.809832, 50.565934, 51.368859
6278, 91.242036, 50.299778, 51.782323
6279, 91.167339, 50.601882, 51.480759
6280, 90.859259, 50.596031, 51.756542
6281, 91.609129, 50.199575, 51.377271
6282, 91.632014, 50.542485, 51.339761
6283, 91.589876, 50.296453, 51.770747
6284, 91.670024, 50.620316, 51.476564
6285, 91.823345, 50.185199, 51.540828
6286, 91.852106, 50.448461, 51.477729
6287, 91.175494, 50.989209, 51.360555
6288, 90.810393, 50.995081, 51.368659
6289, 91.170399, 50.958717, 51.480267
6290, 90.855007, 50.966970, 51.755154
6291, 91.537553, 50.973732, 51.298664
6292, 91.655812, 50.967572, 51.497465
6293, 91.235674, 51.398748, 51.306589
6294, 90.819698, 51.367802, 51.367597
6295, 91.257035, 51.256142, 51.735538
6296, 91.484332, 51.342584, 51.329355
6297, 91.577687, 51.204142, 51.727373
6298, 91.619087, 51.924349, 51.978739
6299, 91.528626, 52.458135, 52.047897
6300, 90.820312, 51.757812, 51.367188
6301, 91.211075, 51.811674, 51.301366
6302, 91.175232, 52.079708, 51.306663
6303, 90.852158, 52.125863, 51.283505
6304, 91.278121, 52.078488, 51.630246
6305, 91.240441, 52.150897, 51.474041
6306, 90.884258, 52.178269, 51.718733
6307, 91.434218, 51.782576, 51.374028
6308, 91.405975, 52.005317, 51.364602
6309, 91.495304, 51.952230, 51.650613
6310, 91.423162, 52.049898, 51.429305
6311, 91.118363, 52.376500, 51.360052
6312, 90.836342, 52.516910, 51.339682
6313, 91.189003, 52.388605, 51.527082
6314, 90.943609, 52.454786, 51.679339
6315, 91.316657, 52.437049, 51.690464
6316, 91.488784, 52.339841, 51.745799
6317, 90.758759, 52.770235, 51.377659
6318, 88.647405, 54.108538, 51.168300
6319, 88.634367, 54.323496, 51.876511
6320, 89.240423, 54.014786, 51.322634
6321, 89.432485, 54.116414, 51.929353
6322, 89.613347, 53.043974, 50.606940
6323, 89.676240, 53.219023, 50.406535
6324, 89.639093, 52.926757, 50.582946
6325, 89.716837, 52.960267, 50.220467
6326, 89.959404, 53.060897, 50.648173
6327, 89.931346, 53.160365, 50.567584
6328, 90.077622, 52.867760, 50.603748
6329, 90.010115, 52.917797, 50.270156
6330, 89.618416, 53.057113, 50.931303
6331, 89.629023, 52.927171, 50.986505
6332, 90.081911, 53.049546, 50.933994
6333, 90.093205, 52.916057, 50.956847
6334, 90.233819, 53.153522, 50.988668
6335, 90.376067, 52.865313, 51.036324
6336, 88.426700, 54.844487, 52.088426
6337, 90.010815, 54.055048, 52.054377
6338, 91.177944, 49.007404, 47.074964
6339, 91.210938, 49.023438, 47.460938
6340, 91.635049, 49.007719, 47.075106
6341, 91.601562, 49.023438, 47.460938
6342, 91.181411, 49.427058, 47.075271
6343, 91.210938, 49.414062, 47.460938
6344, 91.629682, 49.431142, 47.073737
6345, 91.601562, 49.414062, 47.460938
6346, 91.210938, 49.023438, 47.851562
6347, 91.601562, 49.023438, 47.851562
6348, 91.210938, 49.414062, 47.851562
6349, 91.601562, 49.414062, 47.851562
6350, 92.002750, 49.003644, 47.068584
6351, 91.992188, 49.023438, 47.460938
6352, 92.369986, 48.999682, 47.067995
6353, 92.382812, 49.023438, 47.460938
6354, 92.002699, 49.433823, 47.068577
6355, 91.992188, 49.414062, 47.460938
6356, 92.370718, 49.436634, 47.068090
6357, 92.382812, 49.414062, 47.460938
6358, 92.040228, 48.988079, 47.881643
6359, 92.355225, 49.070741, 47.832583
6360, 91.992188, 49.414062, 47.851562
6361, 92.355358, 49.432829, 47.846849
6362, 91.209484, 49.805465, 47.070260
6363, 91.210938, 49.804688, 47.460938
6364, 91.603016, 49.805465, 47.070260
6365, 91.601562, 49.804688, 47.460938
6366, 91.209484, 50.194535, 47.070260
6367, 91.210938, 50.195312, 47.460938
6368, 91.603016, 50.194535, 47.070260
6369, 91.601562, 50.195312, 47.460938
6370, 91.210938, 49.804688, 47.851562
6371, 91.601562, 49.804688, 47.851562
6372, 91.210938, 50.195312, 47.851562
6373, 91.601562, 50.195312, 47.851562
6374, 91.992802, 49.805302, 47.069903
6375, 91.992188, 49.804688, 47.460938
6376, 92.381604, 49.805917, 47.069509
6377, 92.382812, 49.804688, 47.460938
6378, 91.992802, 50.194698, 47.069903
6379, 91.992188, 50.195312, 47.460938
6380, 92.381604, 50.194083, 47.069509
6381, 92.382812, 50.195312, 47.460938
6382, 91.992188, 49.804688, 47.851562
6383, 92.359397, 49.811909, 47.859955
6384, 91.992188, 50.195312, 47.851562
6385, 92.362940, 50.194627, 47.865283
6386, 91.210938, 49.023438, 48.242188
6387, 91.643433, 49.020996, 48.255784
6388, 91.210938, 49.414062, 48.242188
6389, 91.655515, 49.399569, 48.285710
6390, 91.237040, 49.031656, 48.678078
6391, 91.520481, 49.035088, 48.554040
6392, 91.261217, 49.402170, 48.694692
6393, 91.552767, 49.413147, 48.584737
6394, 91.986410, 49.035026, 48.130446
6395, 91.992073, 49.420190, 48.168409
6396, 92.236379, 49.169145, 48.076658
6397, 92.227024, 49.456685, 48.090928
6398, 91.210938, 49.804688, 48.242188
6399, 91.655949, 49.770145, 48.301682
6400, 91.210938, 50.195312, 48.242188
6401, 91.601562, 50.195312, 48.242188
6402, 91.278332, 49.768112, 48.693511
6403, 91.586829, 49.856256, 48.616621
6404, 91.210938, 50.195312, 48.632812
6405, 91.588078, 50.199430, 48.616519
6406, 91.960858, 49.835325, 48.236771
6407, 92.226017, 49.818850, 48.121636
6408, 91.958544, 50.196370, 48.238058
6409, 92.225669, 50.190061, 48.128351
6410, 91.848794, 49.952774, 48.504416
6411, 91.839082, 50.199211, 48.500394
6412, 92.730700, 48.999133, 47.073703
6413, 92.745406, 49.057009, 47.485228
6414, 93.163060, 49.029468, 47.179285
6415, 93.021021, 49.063846, 47.412529
6416, 92.736447, 49.433461, 47.075080
6417, 92.755954, 49.430904, 47.493001
6418, 93.178885, 49.411931, 47.185019
6419, 93.044532, 49.427513, 47.420301
6420, 92.628952, 48.827565, 47.714296
6421, 92.617521, 49.094564, 47.735634
6422, 92.626626, 49.441814, 47.752115
6423, 92.770579, 49.806230, 47.070180
6424, 92.770455, 49.810209, 47.497246
6425, 93.179073, 49.789365, 47.140778
6426, 93.058151, 49.806869, 47.418229
6427, 92.769139, 50.193009, 47.070058
6428, 92.772421, 50.194845, 47.499369
6429, 93.181079, 50.210156, 47.141123
6430, 93.060523, 50.196955, 47.419951
6431, 92.638770, 49.814625, 47.763560
6432, 92.642409, 50.195506, 47.768279
6433, 91.138723, 49.037231, 49.043598
6434, 91.169862, 49.421854, 49.069454
6435, 91.102834, 49.038308, 49.316354
6436, 91.119435, 49.435526, 49.428653
6437, 91.224937, 49.838603, 49.033937
6438, 91.223807, 50.197825, 49.035131
6439, 91.495218, 49.952033, 48.897396
6440, 91.488462, 50.200204, 48.887653
6441, 91.111184, 49.812831, 49.433813
6442, 91.108397, 50.195121, 49.427916
6443, 91.078551, 49.498172, 49.820822
6444, 91.075153, 49.819811, 49.808453
6445, 91.081502, 50.195323, 49.800084
6446, 91.097138, 49.437542, 50.221492
6447, 91.094381, 49.808570, 50.174143
6448, 91.101275, 50.195447, 50.162104
6449, 89.648438, 50.585938, 49.023438
6450, 90.039062, 50.585938, 49.023438
6451, 89.648438, 50.976562, 49.023438
6452, 90.039062, 50.976562, 49.023438
6453, 89.648438, 50.585938, 49.414062
6454, 90.039062, 50.585938, 49.414062
6455, 89.648438, 50.976562, 49.414062
6456, 90.039062, 50.976562, 49.414062
6457, 90.429688, 50.585938, 49.023438
6458, 90.820312, 50.585938, 49.023438
6459, 90.429688, 50.976562, 49.023438
6460, 90.820312, 50.976562, 49.023438
6461, 90.429688, 50.585938, 49.414062
6462, 90.820312, 50.585938, 49.414062
6463, 90.429688, 50.976562, 49.414062
6464, 90.853191, 51.018312, 49.456848
6465, 89.648438, 51.367188, 49.023438
6466, 90.039062, 51.367188, 49.023438
6467, 89.648438, 51.757812, 49.023438
6468, 90.039062, 51.757812, 49.023438
6469, 89.648438, 51.367188, 49.414062
6470, 90.039062, 51.367188, 49.414062
6471, 89.648438, 51.757812, 49.414062
6472, 90.039062, 51.757812, 49.414062
6473, 90.429688, 51.367188, 49.023438
6474, 90.742926, 51.355501, 49.086961
6475, 90.383361, 51.616385, 49.022749
6476, 90.583759, 51.579640, 49.030960
6477, 90.429688, 51.367188, 49.414062
6478, 90.831190, 51.352137, 49.411644
6479, 90.496422, 51.814993, 49.467752
6480, 90.738068, 51.752949, 49.413316
6481, 89.648438, 50.585938, 49.804688
6482, 90.039062, 50.585938, 49.804688
6483, 89.648438, 50.976562, 49.804688
6484, 90.039062, 50.976562, 49.804688
6485, 89.648438, 50.585938, 50.195312
6486, 90.039062, 50.585938, 50.195312
6487, 89.648438, 50.976562, 50.195312
6488, 90.039062, 50.976562, 50.195312
6489, 90.429688, 50.585938, 49.804688
6490, 90.820312, 50.585938, 49.804688
6491, 90.429688, 50.976562, 49.804688
6492, 90.846272, 51.016008, 49.805940
6493, 90.429688, 50.585938, 50.195312
6494, 90.820312, 50.585938, 50.195312
6495, 90.429688, 50.976562, 50.195312
6496, 90.864389, 51.019415, 50.152902
6497, 89.648438, 51.367188, 49.804688
6498, 90.039062, 51.367188, 49.804688
6499, 89.648438, 51.757812, 49.804688
6500, 90.039062, 51.757812, 49.804688
6501, 89.648438, 51.367188, 50.195312
6502, 90.039062, 51.367188, 50.195312
6503, 89.648438, 51.757812, 50.195312
6504, 90.039062, 51.757812, 50.195312
6505, 90.429688, 51.367188, 49.804688
6506, 90.783454, 51.387609, 49.812377
6507, 90.482738, 51.809427, 49.810876
6508, 90.735334, 51.706549, 49.817711
6509, 90.429688, 51.367188, 50.195312
6510, 90.837017, 51.379029, 50.206880
6511, 90.497521, 51.813851, 50.150736
6512, 90.753248, 51.761136, 50.225289
6513, 89.648438, 52.148438, 49.023438
6514, 90.039062, 52.148438, 49.023438
6515, 89.648438, 52.539062, 49.023438
6516, 90.039062, 52.539062, 49.023438
6517, 89.648438, 52.148438, 49.414062
6518, 90.039062, 52.148438, 49.414062
6519, 89.648438, 52.539062, 49.414062
6520, 90.092035, 52.577049, 49.455864
6521, 90.469946, 52.166590, 49.063946
6522, 90.563553, 52.110285, 49.003954
6523, 90.425692, 52.525800, 49.026826
6524, 90.624220, 52.434839, 48.955730
6525, 90.458935, 52.164811, 49.408295
6526, 90.695610, 52.053329, 49.331432
6527, 90.357072, 52.519295, 49.413805
6528, 90.320960, 52.794161, 49.047482
6529, 90.301323, 52.768847, 49.319306
6530, 89.648438, 52.148438, 49.804688
6531, 90.039062, 52.148438, 49.804688
6532, 89.648438, 52.539062, 49.804688
6533, 90.082686, 52.563886, 49.820391
6534, 89.648438, 52.148438, 50.195312
6535, 90.039062, 52.148438, 50.195312
6536, 89.648438, 52.539062, 50.195312
6537, 90.095073, 52.574541, 50.195028
6538, 90.402989, 52.166290, 49.807749
6539, 90.341123, 52.450147, 49.809255
6540, 90.457583, 52.153391, 50.208871
6541, 90.375768, 52.453711, 50.191539
6542, 90.017979, 52.868897, 49.825335
6543, 91.186692, 50.571712, 47.073991
6544, 91.210938, 50.585938, 47.460938
6545, 91.626090, 50.571861, 47.074025
6546, 91.601562, 50.585938, 47.460938
6547, 91.174155, 50.995233, 47.074774
6548, 91.210938, 50.976562, 47.460938
6549, 91.638947, 50.995139, 47.074849
6550, 91.601562, 50.976562, 47.460938
6551, 91.210938, 50.585938, 47.851562
6552, 91.601562, 50.585938, 47.851562
6553, 91.210938, 50.976562, 47.851562
6554, 91.636018, 50.953166, 47.894027
6555, 92.001999, 50.567619, 47.068751
6556, 91.992188, 50.585938, 47.460938
6557, 92.370737, 50.563397, 47.068122
6558, 92.382812, 50.585938, 47.460938
6559, 92.004613, 50.998333, 47.068195
6560, 91.992188, 50.976562, 47.460938
6561, 92.370520, 50.998857, 47.068155
6562, 92.382812, 50.976562, 47.460938
6563, 91.992188, 50.585938, 47.851562
6564, 92.353985, 50.573748, 47.853863
6565, 92.101336, 51.019723, 47.908536
6566, 92.342422, 50.923692, 47.838835
6567, 91.210938, 50.585938, 48.242188
6568, 91.649377, 50.619377, 48.293083
6569, 91.166208, 50.949987, 48.244562
6570, 91.672267, 51.005581, 48.287571
6571, 91.276769, 50.628562, 48.692059
6572, 91.586839, 50.549684, 48.614268
6573, 91.140121, 50.946712, 48.623514
6574, 91.557863, 50.991577, 48.564189
6575, 91.957600, 50.559456, 48.231141
6576, 92.222798, 50.548303, 48.119535
6577, 92.059422, 50.987894, 48.273929
6578, 92.264062, 50.849200, 48.132749
6579, 91.848491, 50.448763, 48.501546
6580, 92.736384, 50.566548, 47.075030
6581, 92.759487, 50.573747, 47.494740
6582, 93.180426, 50.588582, 47.185919
6583, 93.048351, 50.574768, 47.422335
6584, 92.730410, 51.000902, 47.073921
6585, 92.747930, 50.948164, 47.486291
6586, 93.163359, 50.970403, 47.180470
6587, 93.025789, 50.937409, 47.413754
6588, 92.631725, 50.571318, 47.756902
6589, 92.620419, 50.928623, 47.740042
6590, 91.227299, 50.559218, 49.036848
6591, 91.494827, 50.448633, 48.892182
6592, 91.099044, 50.962192, 49.045174
6593, 91.101293, 50.577433, 49.420377
6594, 91.069792, 50.952456, 49.389373
6595, 90.959864, 51.305619, 49.020456
6596, 90.876283, 51.560883, 48.929612
6597, 91.049886, 51.236859, 49.320042
6598, 91.077776, 50.571383, 49.796911
6599, 91.056756, 50.891771, 49.801174
6600, 91.094207, 50.583459, 50.168067
6601, 91.074581, 50.956100, 50.212031
6602, 91.102775, 49.143955, 50.310262
6603, 91.137753, 49.059754, 50.600381
6604, 91.138547, 49.424975, 50.551840
6605, 91.220147, 49.049223, 50.965284
6606, 91.232340, 49.428291, 50.944126
6607, 91.142931, 49.806287, 50.531432
6608, 91.147132, 50.195741, 50.524418
6609, 91.244519, 49.806673, 50.933623
6610, 91.250893, 50.195002, 50.926171
6611, 91.457805, 48.829113, 51.092048
6612, 91.492037, 49.084013, 51.082334
6613, 91.507276, 49.435783, 51.078578
6614, 91.516769, 49.806264, 51.079930
6615, 91.525673, 50.194168, 51.074436
6616, 89.648438, 50.585938, 50.585938
6617, 90.039062, 50.585938, 50.585938
6618, 89.648438, 50.976562, 50.585938
6619, 90.039062, 50.976562, 50.585938
6620, 89.648438, 50.585938, 50.976562
6621, 90.039062, 50.585938, 50.976562
6622, 89.648438, 50.976562, 50.976562
6623, 90.039062, 50.976562, 50.976562
6624, 90.429688, 50.585938, 50.585938
6625, 90.820312, 50.585938, 50.585938
6626, 90.429688, 50.976562, 50.585938
6627, 90.820312, 50.976562, 50.585938
6628, 90.429688, 50.585938, 50.976562
6629, 90.820312, 50.585938, 50.976562
6630, 90.429688, 50.976562, 50.976562
6631, 90.820312, 50.976562, 50.976562
6632, 89.648438, 51.367188, 50.585938
6633, 90.039062, 51.367188, 50.585938
6634, 89.648438, 51.757812, 50.585938
6635, 90.039062, 51.757812, 50.585938
6636, 89.648438, 51.367188, 50.976562
6637, 90.039062, 51.367188, 50.976562
6638, 89.648438, 51.757812, 50.976562
6639, 90.039062, 51.757812, 50.976562
6640, 90.429688, 51.367188, 50.585938
6641, 90.852822, 51.396949, 50.556742
6642, 90.429688, 51.757812, 50.585938
6643, 90.819771, 51.759764, 50.580952
6644, 90.429688, 51.367188, 50.976562
6645, 90.820312, 51.367188, 50.976562
6646, 90.429688, 51.757812, 50.976562
6647, 90.852328, 51.782471, 50.933527
6648, 89.648438, 52.148438, 50.585938
6649, 90.039062, 52.148438, 50.585938
6650, 89.648438, 52.539062, 50.585938
6651, 90.116872, 52.580885, 50.548954
6652, 89.648438, 52.148438, 50.976562
6653, 90.039062, 52.148438, 50.976562
6654, 89.648438, 52.539062, 50.976562
6655, 90.039062, 52.539062, 50.976562
6656, 90.468373, 52.178004, 50.561683
6657, 90.708605, 52.048014, 50.314559
6658, 90.729356, 52.125180, 50.605726
6659, 90.432378, 52.517575, 50.603783
6660, 90.429688, 52.148438, 50.976562
6661, 90.823167, 52.127774, 50.954498
6662, 90.445924, 52.549235, 50.951105
6663, 90.685374, 52.421842, 50.691689
6664, 90.724975, 52.491973, 50.980330
6665, 90.351356, 52.796614, 50.701927
6666, 90.675826, 52.747818, 51.082072
6667, 91.135176, 50.586060, 50.530031
6668, 91.110011, 50.970936, 50.552346
6669, 91.237870, 50.583026, 50.929113
6670, 91.214968, 50.973799, 50.939394
6671, 91.068472, 51.250187, 50.307776
6672, 91.090215, 51.332273, 50.599389
6673, 91.197702, 51.351640, 50.952805
6674, 91.078752, 51.641184, 50.677902
6675, 91.120498, 51.731810, 50.966206
6676, 91.513233, 50.573141, 51.072598
6677, 91.472500, 50.946766, 51.072533
6678, 91.445567, 51.234714, 51.082366
6679, 91.099087, 52.022454, 51.038339
6680, 93.758980, 48.351487, 53.515495
6681, 93.798126, 48.733647, 53.484240
6682, 93.793513, 51.272545, 53.475533
6683, 93.734699, 51.645380, 53.495005
6684, 93.432940, 49.661373, 46.548062
6685, 93.551420, 49.329794, 46.877623
6686, 93.532282, 49.072098, 46.870867
6687, 93.909710, 48.844110, 46.432969
6688, 93.938976, 49.570727, 46.478133
6689, 93.855173, 49.312560, 46.764421
6690, 93.838016, 49.071633, 46.751866
6691, 93.431651, 50.337394, 46.550472
6692, 93.525668, 50.923088, 46.872617
6693, 93.552000, 50.668323, 46.882283
6694, 93.936649, 50.425518, 46.479183
6695, 93.897060, 51.146005, 46.436451
6696, 93.830210, 50.922087, 46.755476
6697, 93.851210, 50.683118, 46.767117
6698, 91.737845, 48.014353, 44.146251
6699, 90.995377, 48.009926, 44.137365
6700, 91.796875, 48.046875, 44.921875
6701, 91.015625, 48.046875, 44.921875
6702, 92.635313, 48.015947, 44.146448
6703, 92.578125, 48.046875, 44.921875
6704, 91.748250, 48.855602, 44.146018
6705, 90.997216, 48.862525, 44.137725
6706, 91.796875, 48.828125, 44.921875
6707, 91.015625, 48.828125, 44.921875
6708, 92.626805, 48.855579, 44.146030
6709, 92.578125, 48.828125, 44.921875
6710, 91.796875, 48.046875, 45.703125
6711, 91.015625, 48.046875, 45.703125
6712, 92.578125, 48.046875, 45.703125
6713, 91.796875, 48.828125, 45.703125
6714, 91.015625, 48.828125, 45.703125
6715, 92.578125, 48.828125, 45.703125
6716, 93.379913, 48.009183, 44.137220
6717, 93.359375, 48.046875, 44.921875
6718, 94.119396, 48.007125, 44.137254
6719, 94.140625, 48.046875, 44.921875
6720, 93.377806, 48.862581, 44.137671
6721, 93.359375, 48.828125, 44.921875
6722, 94.116322, 48.873234, 44.136247
6723, 94.140625, 48.828125, 44.921875
6724, 93.359375, 48.046875, 45.703125
6725, 94.152899, 48.062659, 45.741108
6726, 93.359375, 48.828125, 45.703125
6727, 94.212304, 48.831472, 45.782170
6728, 91.793334, 49.611327, 44.140451
6729, 91.014123, 49.610902, 44.139624
6730, 91.796875, 49.609375, 44.921875
6731, 91.015625, 49.609375, 44.921875
6732, 92.581666, 49.611327, 44.140451
6733, 92.578125, 49.609375, 44.921875
6734, 91.793334, 50.388673, 44.140451
6735, 91.014123, 50.389098, 44.139624
6736, 91.796875, 50.390625, 44.921875
6737, 91.015625, 50.390625, 44.921875
6738, 92.581666, 50.388673, 44.140451
6739, 92.578125, 50.390625, 44.921875
6740, 91.796875, 49.609375, 45.703125
6741, 91.015625, 49.609375, 45.703125
6742, 92.578125, 49.609375, 45.703125
6743, 91.796875, 50.390625, 45.703125
6744, 91.015625, 50.390625, 45.703125
6745, 92.578125, 50.390625, 45.703125
6746, 93.360877, 49.610902, 44.139624
6747, 93.359375, 49.609375, 44.921875
6748, 94.139114, 49.610914, 44.139619
6749, 94.140625, 49.609375, 44.921875
6750, 93.360877, 50.389098, 44.139624
6751, 93.359375, 50.390625, 44.921875
6752, 94.139114, 50.389086, 44.139619
6753, 94.140625, 50.390625, 44.921875
6754, 93.359375, 49.609375, 45.703125
6755, 94.232211, 49.601241, 45.802267
6756, 93.359375, 50.390625, 45.703125
6757, 94.228769, 50.389814, 45.804483
6758, 93.860310, 47.488655, 46.215717
6759, 93.864483, 48.092495, 46.303295
6760, 91.807208, 49.649706, 46.448593
6761, 92.586244, 49.664240, 46.429138
6762, 91.801181, 50.347282, 46.441722
6763, 92.586706, 50.336358, 46.433172
6764, 91.173099, 49.041428, 46.953991
6765, 91.640772, 49.040552, 46.958210
6766, 91.960064, 49.039921, 46.677186
6767, 91.175822, 49.397117, 46.949967
6768, 91.639520, 49.392525, 46.955275
6769, 91.957596, 49.398722, 46.677797
6770, 91.250658, 49.708625, 46.649977
6771, 91.561178, 49.713034, 46.652228
6772, 92.722027, 49.042680, 46.959588
6773, 92.421019, 49.036946, 46.677808
6774, 93.220302, 49.044995, 46.962380
6775, 93.429337, 49.012401, 47.084702
6776, 92.726500, 49.396541, 46.957202
6777, 92.419908, 49.397001, 46.678223
6778, 93.224871, 49.403142, 46.971885
6779, 93.470241, 49.398278, 47.084889
6780, 92.812111, 49.694601, 46.664288
6781, 93.173980, 49.718461, 46.711496
6782, 93.417941, 49.772171, 47.015918
6783, 94.859124, 48.021482, 44.150428
6784, 94.973140, 48.054613, 44.970448
6785, 95.770831, 48.077420, 44.312105
6786, 95.564085, 48.103080, 44.805978
6787, 94.851025, 48.868835, 44.146573
6788, 95.029567, 48.777007, 44.993718
6789, 95.807454, 48.810778, 44.358709
6790, 95.654085, 48.913617, 44.894659
6791, 94.774310, 48.090189, 45.507603
6792, 94.947149, 48.882882, 45.509408
6793, 94.916196, 49.612481, 44.140311
6794, 94.921875, 49.609375, 44.921875
6795, 95.703125, 49.609375, 44.140625
6796, 95.653397, 49.623801, 44.877138
6797, 94.916899, 50.387910, 44.140366
6798, 95.052593, 50.468950, 45.020863
6799, 95.703125, 50.390625, 44.140625
6800, 95.670382, 50.334382, 44.890465
6801, 94.963558, 49.606615, 45.521456
6802, 95.433111, 49.107199, 45.351775
6803, 95.431533, 49.612951, 45.351557
6804, 94.970025, 50.335123, 45.538890
6805, 95.437629, 50.119263, 45.368663
6806, 96.293670, 48.897500, 44.234490
6807, 96.244737, 49.580951, 44.116278
6808, 96.133535, 49.128153, 44.671151
6809, 96.125182, 49.668201, 44.638248
6810, 96.246405, 50.436554, 44.106879
6811, 96.133752, 50.345474, 44.632377
6812, 91.748199, 51.144452, 44.146053
6813, 90.997196, 51.137493, 44.137719
6814, 91.796875, 51.171875, 44.921875
6815, 91.015625, 51.171875, 44.921875
6816, 92.626793, 51.144429, 44.146033
6817, 92.578125, 51.171875, 44.921875
6818, 91.735839, 51.986886, 44.146171
6819, 90.994905, 51.990610, 44.137268
6820, 91.796875, 51.953125, 44.921875
6821, 91.015625, 51.953125, 44.921875
6822, 92.635299, 51.984019, 44.146416
6823, 92.578125, 51.953125, 44.921875
6824, 91.796875, 51.171875, 45.703125
6825, 91.015625, 51.171875, 45.703125
6826, 92.578125, 51.171875, 45.703125
6827, 91.796875, 51.953125, 45.703125
6828, 91.015625, 51.953125, 45.703125
6829, 92.578125, 51.953125, 45.703125
6830, 93.377809, 51.137436, 44.137675
6831, 93.359375, 51.171875, 44.921875
6832, 94.116693, 51.127501, 44.136355
6833, 94.140625, 51.171875, 44.921875
6834, 93.379934, 51.990804, 44.137220
6835, 93.359375, 51.953125, 44.921875
6836, 94.120141, 51.991433, 44.137446
6837, 94.140625, 51.953125, 44.921875
6838, 93.359375, 51.171875, 45.703125
6839, 94.184235, 51.168961, 45.791323
6840, 93.359375, 51.953125, 45.703125
6841, 94.132928, 51.921154, 45.736527
6842, 91.173869, 50.600937, 46.946992
6843, 91.253553, 50.294772, 46.647390
6844, 91.640891, 50.605449, 46.954260
6845, 91.561051, 50.286959, 46.652631
6846, 91.957756, 50.601824, 46.675900
6847, 91.166069, 50.962812, 46.957279
6848, 91.647688, 50.934729, 46.935766
6849, 91.959580, 50.960503, 46.669797
6850, 93.855560, 51.882515, 46.299031
6851, 92.726645, 50.604511, 46.957949
6852, 92.421299, 50.601238, 46.679048
6853, 92.811687, 50.305490, 46.667109
6854, 93.224451, 50.596260, 46.971889
6855, 93.175104, 50.281125, 46.713307
6856, 93.468065, 50.601560, 47.087823
6857, 93.417765, 50.224089, 47.016327
6858, 92.719841, 50.957819, 46.959859
6859, 92.416690, 50.958768, 46.675017
6860, 93.218953, 50.955732, 46.962609
6861, 93.426117, 50.982324, 47.085024
6862, 93.848503, 52.449638, 46.204009
6863, 94.852619, 51.132953, 44.146920
6864, 95.028578, 51.186163, 44.996898
6865, 95.829954, 51.207074, 44.332266
6866, 95.727538, 51.127953, 44.790503
6867, 94.861031, 51.976953, 44.150473
6868, 94.971401, 51.929553, 44.969143
6869, 95.781282, 51.931470, 44.295870
6870, 95.588944, 51.903080, 44.771986
6871, 94.822232, 51.163875, 45.560975
6872, 94.732706, 51.900376, 45.519154
6873, 96.307150, 51.122331, 44.212571
6874, 96.157705, 50.903129, 44.627185
6875, 88.668330, 50.388674, 44.140451
6876, 88.626240, 51.144033, 44.145545
6877, 88.671875, 50.390625, 44.921875
6878, 88.671875, 51.171875, 44.921875
6879, 89.456666, 50.388673, 44.140451
6880, 89.499326, 51.144099, 44.145541
6881, 89.453125, 50.390625, 44.921875
6882, 89.453125, 51.171875, 44.921875
6883, 88.609205, 51.986368, 44.146656
6884, 88.671875, 51.953125, 44.921875
6885, 89.517887, 51.989617, 44.145767
6886, 89.453125, 51.953125, 44.921875
6887, 88.671875, 50.390625, 45.703125
6888, 88.671875, 51.171875, 45.703125
6889, 89.453125, 50.390625, 45.703125
6890, 89.453125, 51.171875, 45.703125
6891, 88.671875, 51.953125, 45.703125
6892, 89.453125, 51.953125, 45.703125
6893, 90.235877, 50.389098, 44.139624
6894, 90.252826, 51.137534, 44.137711
6895, 90.234375, 50.390625, 44.921875
6896, 90.234375, 51.171875, 44.921875
6897, 90.256670, 51.993177, 44.136894
6898, 90.234375, 51.953125, 44.921875
6899, 90.234375, 50.390625, 45.703125
6900, 90.234375, 51.171875, 45.703125
6901, 90.234375, 51.953125, 45.703125
6902, 88.671875, 50.390625, 46.484375
6903, 88.671875, 51.171875, 46.484375
6904, 89.453125, 50.390625, 46.484375
6905, 89.453125, 51.171875, 46.484375
6906, 88.671875, 51.953125, 46.484375
6907, 89.453125, 51.953125, 46.484375
6908, 90.234375, 51.953125, 46.484375
6909, 88.609248, 48.013615, 44.146621
6910, 88.671875, 48.046875, 44.921875
6911, 89.516041, 48.011911, 44.146012
6912, 89.453125, 48.046875, 44.921875
6913, 88.625486, 48.854094, 44.146212
6914, 88.671875, 48.828125, 44.921875
6915, 89.501785, 48.855600, 44.146026
6916, 89.453125, 48.828125, 44.921875
6917, 88.671875, 48.046875, 45.703125
6918, 89.453125, 48.046875, 45.703125
6919, 88.671875, 48.828125, 45.703125
6920, 89.453125, 48.828125, 45.703125
6921, 90.256228, 48.007457, 44.137001
6922, 90.234375, 48.046875, 44.921875
6923, 90.252836, 48.862475, 44.137707
6924, 90.234375, 48.828125, 44.921875
6925, 90.234375, 48.046875, 45.703125
6926, 90.234375, 48.828125, 45.703125
6927, 88.668330, 49.611326, 44.140451
6928, 88.671875, 49.609375, 44.921875
6929, 89.456666, 49.611327, 44.140451
6930, 89.453125, 49.609375, 44.921875
6931, 88.671875, 49.609375, 45.703125
6932, 89.453125, 49.609375, 45.703125
6933, 90.235877, 49.610902, 44.139624
6934, 90.234375, 49.609375, 44.921875
6935, 90.234375, 49.609375, 45.703125
6936, 88.671875, 48.046875, 46.484375
6937, 89.453125, 48.046875, 46.484375
6938, 88.671875, 48.828125, 46.484375
6939, 89.453125, 48.828125, 46.484375
6940, 90.234375, 48.046875, 46.484375
6941, 88.671875, 49.609375, 46.484375
6942, 89.453125, 49.609375, 46.484375
6943, 96.265415, 45.998965, 40.016294
6944, 94.531250, 46.093750, 39.843750
6945, 97.125346, 45.313991, 39.405828
6946, 97.343716, 46.283719, 39.821080
6947, 96.093750, 47.656250, 39.843750
6948, 94.531250, 47.656250, 39.843750
6949, 97.738221, 47.783209, 39.772662
6950, 96.149257, 46.098690, 41.454815
6951, 94.531250, 46.093750, 41.406250
6952, 96.285799, 47.542909, 41.598329
6953, 94.531250, 47.656250, 41.406250
6954, 97.220163, 46.603652, 41.014028
6955, 97.334785, 47.804874, 41.404221
6956, 96.093750, 49.218750, 39.843750
6957, 94.531250, 49.218750, 39.843750
6958, 97.802534, 49.248716, 39.792813
6959, 96.093750, 50.781250, 39.843750
6960, 94.531250, 50.781250, 39.843750
6961, 97.793638, 50.768295, 39.795431
6962, 96.093750, 49.218750, 41.406250
6963, 94.531250, 49.218750, 41.406250
6964, 97.395862, 49.238194, 41.452188
6965, 96.093750, 50.781250, 41.406250
6966, 94.531250, 50.781250, 41.406250
6967, 97.385081, 50.772797, 41.443380
6968, 98.628599, 48.340019, 39.012291
6969, 98.661828, 49.348538, 38.937885
6970, 98.652495, 50.689694, 38.945858
6971, 94.431522, 44.865553, 42.892917
6972, 95.484823, 45.089709, 42.497673
6973, 94.533534, 49.310816, 42.894745
6974, 94.531778, 50.690871, 42.896105
6975, 94.827614, 48.081202, 43.915665
6976, 94.219331, 48.063413, 43.363685
6977, 95.803561, 48.099300, 43.937252
6978, 96.326603, 48.126418, 44.077424
6979, 96.303315, 47.695638, 43.909076
6980, 94.827064, 48.799021, 43.921163
6981, 94.221413, 48.804835, 43.359867
6982, 95.817245, 48.820815, 43.957724
6983, 94.986238, 49.383918, 43.323431
6984, 95.696146, 49.422662, 43.386936
6985, 93.291668, 48.077815, 43.348953
6986, 93.289083, 48.800948, 43.351586
6987, 92.989132, 49.295539, 42.901865
6988, 83.593750, 50.781250, 39.843750
6989, 83.593750, 52.343750, 39.843750
6990, 85.156250, 50.781250, 39.843750
6991, 85.156250, 52.343750, 39.843750
6992, 83.593750, 53.906250, 39.843750
6993, 85.156250, 53.906250, 39.843750
6994, 83.593750, 50.781250, 41.406250
6995, 83.593750, 52.343750, 41.406250
6996, 85.156250, 50.781250, 41.406250
6997, 85.156250, 52.343750, 41.406250
6998, 83.593750, 53.906250, 41.406250
6999, 85.156250, 53.906250, 41.406250
7000, 86.718750, 50.781250, 39.843750
7001, 86.718750, 52.343750, 39.843750
7002, 88.281250, 50.781250, 39.843750
7003, 88.281250, 52.343750, 39.843750
7004, 86.718750, 53.906250, 39.843750
7005, 88.281250, 53.906250, 39.843750
7006, 86.718750, 50.781250, 41.406250
7007, 86.718750, 52.343750, 41.406250
7008, 88.281250, 50.781250, 41.406250
7009, 88.281250, 52.343750, 41.406250
7010, 86.718750, 53.906250, 41.406250
7011, 88.281250, 53.906250, 41.406250
7012, 83.593750, 50.781250, 42.968750
7013, 83.593750, 52.343750, 42.968750
7014, 85.156250, 50.781250, 42.968750
7015, 85.156250, 52.343750, 42.968750
7016, 83.593750, 53.906250, 42.968750
7017, 85.156250, 53.906250, 42.968750
7018, 86.718750, 53.906250, 42.968750
7019, 89.843750, 50.781250, 39.843750
7020, 89.843750, 52.343750, 39.843750
7021, 91.406250, 50.781250, 39.843750
7022, 91.406250, 52.343750, 39.843750
7023, 89.843750, 53.906250, 39.843750
7024, 91.406250, 53.906250, 39.843750
7025, 89.843750, 50.781250, 41.406250
7026, 89.843750, 52.343750, 41.406250
7027, 91.406250, 50.781250, 41.406250
7028, 91.406250, 52.343750, 41.406250
7029, 89.843750, 53.906250, 41.406250
7030, 91.406250, 53.906250, 41.406250
7031, 92.968750, 50.781250, 39.843750
7032, 92.968750, 52.343750, 39.843750
7033, 94.531250, 52.343750, 39.843750
7034, 92.968750, 53.906250, 39.843750
7035, 94.531250, 53.906250, 39.843750
7036, 92.968750, 50.781250, 41.406250
7037, 92.968750, 52.343750, 41.406250
7038, 94.531250, 52.343750, 41.406250
7039, 92.968750, 53.906250, 41.406250
7040, 94.531250, 53.906250, 41.406250
7041, 89.864398, 50.706164, 42.904137
7042, 91.386502, 50.706392, 42.907755
7043, 88.595727, 51.208082, 43.901026
7044, 88.752677, 50.576894, 43.296686
7045, 89.532274, 51.209688, 43.911692
7046, 89.371769, 50.567266, 43.298617
7047, 90.164577, 51.198453, 43.348305
7048, 88.586082, 51.919232, 43.913124
7049, 89.540832, 51.917578, 43.922555
7050, 90.169419, 51.920694, 43.342994
7051, 88.751684, 49.423390, 43.296172
7052, 89.371277, 49.432303, 43.299530
7053, 89.864424, 49.294407, 42.903486
7054, 92.989412, 50.704256, 42.900995
7055, 91.718788, 51.208539, 43.912106
7056, 91.085817, 51.197151, 43.350429
7057, 91.874729, 50.568760, 43.300625
7058, 92.657262, 51.209571, 43.913367
7059, 92.501361, 50.568226, 43.297705
7060, 93.289114, 51.199065, 43.350451
7061, 91.710413, 51.917988, 43.921254
7062, 91.080049, 51.922178, 43.345479
7063, 92.663031, 51.916787, 43.919985
7064, 93.291708, 51.922213, 43.349268
7065, 91.874135, 49.432200, 43.300623
7066, 91.385137, 49.292661, 42.908832
7067, 92.502284, 49.432441, 43.298161
7068, 94.445380, 55.156460, 42.883153
7069, 92.923551, 55.247954, 44.100042
7070, 94.029916, 54.968715, 43.936327
7071, 96.093750, 52.343750, 39.843750
7072, 97.726649, 52.228288, 39.774573
7073, 96.267800, 54.005981, 40.017737
7074, 97.335019, 53.744312, 39.824914
7075, 96.273615, 52.460471, 41.584556
7076, 97.309350, 52.205499, 41.389052
7077, 96.140294, 53.904322, 41.440852
7078, 97.201139, 53.410549, 41.003774
7079, 98.603061, 51.697343, 39.027992
7080, 97.122234, 54.705348, 39.399194
7081, 94.826992, 51.199582, 43.920543
7082, 94.221118, 51.194953, 43.358350
7083, 94.985102, 50.613875, 43.323591
7084, 95.817908, 51.188149, 43.957313
7085, 95.694382, 50.579937, 43.387948
7086, 94.828412, 51.919361, 43.915861
7087, 94.218116, 51.936629, 43.362316
7088, 95.806150, 51.905111, 43.935248
7089, 96.332285, 51.887188, 44.055244
7090, 96.307045, 52.317232, 43.887213
7091, 95.486231, 54.928283, 42.488979
7092, 89.843750, 46.093750, 39.843750
7093, 88.281250, 46.093750, 39.843750
7094, 91.406250, 46.093750, 39.843750
7095, 89.843750, 47.656250, 39.843750
7096, 88.281250, 47.656250, 39.843750
7097, 91.406250, 47.656250, 39.843750
7098, 89.843750, 46.093750, 41.406250
7099, 88.281250, 46.093750, 41.406250
7100, 91.406250, 46.093750, 41.406250
7101, 89.843750, 47.656250, 41.406250
7102, 88.281250, 47.656250, 41.406250
7103, 91.406250, 47.656250, 41.406250
7104, 92.968750, 46.093750, 39.843750
7105, 92.968750, 47.656250, 39.843750
7106, 92.968750, 46.093750, 41.406250
7107, 92.968750, 47.656250, 41.406250
7108, 89.843750, 49.218750, 39.843750
7109, 88.281250, 49.218750, 39.843750
7110, 91.406250, 49.218750, 39.843750
7111, 89.843750, 49.218750, 41.406250
7112, 88.281250, 49.218750, 41.406250
7113, 91.406250, 49.218750, 41.406250
7114, 92.968750, 49.218750, 39.843750
7115, 92.968750, 49.218750, 41.406250
7116, 93.954409, 44.993160, 43.976516
7117, 88.586786, 48.080925, 43.913523
7118, 89.541713, 48.080902, 43.922248
7119, 90.168562, 48.078358, 43.343164
7120, 88.595408, 48.793513, 43.902308
7121, 89.530699, 48.790971, 43.911972
7122, 90.165263, 48.801127, 43.347368
7123, 91.711446, 48.082649, 43.920305
7124, 91.081157, 48.076876, 43.347095
7125, 92.662408, 48.083848, 43.919636
7126, 91.718428, 48.790990, 43.912540
7127, 91.086354, 48.803246, 43.349436
7128, 92.656764, 48.789996, 43.913047
7129, 83.593750, 46.093750, 39.843750
7130, 85.156250, 46.093750, 39.843750
7131, 83.593750, 47.656250, 39.843750
7132, 85.156250, 47.656250, 39.843750
7133, 83.593750, 46.093750, 41.406250
7134, 85.156250, 46.093750, 41.406250
7135, 83.593750, 47.656250, 41.406250
7136, 85.156250, 47.656250, 41.406250
7137, 86.718750, 46.093750, 39.843750
7138, 86.718750, 47.656250, 39.843750
7139, 86.718750, 46.093750, 41.406250
7140, 86.718750, 47.656250, 41.406250
7141, 83.593750, 49.218750, 39.843750
7142, 85.156250, 49.218750, 39.843750
7143, 83.593750, 49.218750, 41.406250
7144, 85.156250, 49.218750, 41.406250
7145, 86.718750, 49.218750, 39.843750
7146, 86.718750, 49.218750, 41.406250
7147, 83.593750, 46.093750, 42.968750
7148, 85.156250, 46.093750, 42.968750
7149, 83.593750, 47.656250, 42.968750
7150, 85.156250, 47.656250, 42.968750
7151, 86.718750, 46.093750, 42.968750
7152, 83.593750, 49.218750, 42.968750
7153, 85.156250, 49.218750, 42.968750
7154, 94.246107, 56.573847, 36.749583
7155, 4.924372, 48.985745, 29.762797
7156, 7.037021, 48.093036, 28.731177
7157, 7.060122, 51.888852, 28.691605
7158, 4.942080, 51.043983, 29.759650
7159, 3.211351, 47.850248, 31.455100
7160, 5.489742, 46.439898, 30.214094
7161, 5.520623, 53.548362, 30.188939
7162, 3.215601, 52.247898, 31.434580
7163, 8.066229, 45.512600, 29.273472
7164, 10.742147, 45.187204, 28.597216
7165, 10.559566, 48.203032, 27.528195
7166, 6.780998, 43.793475, 31.368486
7167, 10.490611, 42.857205, 30.595410
7168, 14.095947, 45.100569, 28.521429
7169, 14.299764, 48.180235, 27.450842
7170, 14.175649, 42.655788, 30.515130
7171, 10.571171, 51.729392, 27.510283
7172, 14.316903, 51.789535, 27.427587
7173, 4.822250, 42.320526, 36.378491
7174, 7.001332, 41.349594, 35.666832
7175, 5.467665, 42.782839, 33.951621
7176, 3.120380, 44.043493, 35.203781
7177, 4.762954, 42.221398, 38.399985
7178, 6.849527, 41.168174, 39.431591
7179, 4.938006, 42.458195, 40.626937
7180, 2.911661, 43.890695, 39.551151
7181, 8.038118, 41.866576, 33.230062
7182, 10.602210, 41.247004, 33.068240
7183, 10.320364, 40.351434, 35.930342
7184, 13.676678, 41.010340, 33.029952
7185, 13.586453, 40.143827, 35.896287
7186, 10.273123, 40.218009, 39.299046
7187, 13.630097, 40.151216, 39.136786
7188, 4.095326, 44.959227, 32.418239
7189, 1.954384, 46.513077, 33.798320
7190, 1.484803, 49.010029, 33.150567
7191, 1.487218, 51.127995, 33.147217
7192, 0.593954, 48.146191, 35.334899
7193, 1.997269, 53.633875, 33.815977
7194, 0.623836, 52.019840, 35.404086
7195, 1.383061, 45.790748, 36.228851
7196, 1.275200, 45.708001, 38.336882
7197, 1.539103, 46.156580, 40.412662
7198, 0.461661, 48.014105, 39.186737
7199, 1.579868, 53.899145, 40.440934
7200, 0.456764, 52.045996, 39.215702
7201, 16.865549, 45.312623, 29.151178
7202, 17.953520, 48.016404, 28.588755
7203, 18.087424, 43.393815, 31.398438
7204, 19.467371, 46.286635, 30.144336
7205, 17.922622, 51.897997, 28.619502
7206, 19.455930, 53.647020, 30.137367
7207, 19.922275, 48.943879, 29.749765
7208, 19.899174, 50.956583, 29.766829
7209, 21.360383, 47.912470, 31.484690
7210, 21.383858, 51.984982, 31.467294
7211, 16.238635, 41.394177, 33.248250
7212, 16.563827, 40.796408, 35.773106
7213, 19.271825, 42.253275, 35.163961
7214, 16.570664, 40.945404, 38.925786
7215, 19.264699, 42.327288, 38.786881
7216, 20.731673, 45.039894, 32.480753
7217, 21.630719, 44.642103, 35.284121
7218, 23.027905, 47.829615, 35.129996
7219, 22.983863, 52.111054, 35.162071
7220, 21.956646, 44.434842, 38.690245
7221, 23.323130, 46.718965, 37.522103
7222, 23.289751, 53.240122, 37.547347
7223, 23.732876, 48.810847, 36.860794
7224, 23.695211, 51.172442, 36.917203
7225, 24.341143, 47.886482, 38.987318
7226, 24.373962, 52.104837, 38.970484
7227, 7.729399, 41.773647, 42.552581
7228, 10.550045, 41.118554, 42.488274
7229, 5.521044, 43.077770, 42.762416
7230, 13.769486, 41.218181, 42.184221
7231, 3.418922, 45.109704, 42.787228
7232, 2.079792, 47.042656, 42.279880
7233, 1.240199, 48.880301, 41.594585
7234, 2.170973, 53.052146, 42.321590
7235, 1.260815, 51.206206, 41.554173
7236, 3.481342, 47.476185, 44.372150
7237, 3.690069, 46.474701, 44.160189
7238, 3.987945, 45.816413, 44.091938
7239, 4.841749, 47.401692, 45.729849
7240, 3.981479, 47.619410, 44.969082
7241, 4.103611, 46.636879, 44.690102
7242, 4.801435, 45.717108, 44.859346
7243, 2.571904, 48.199265, 43.521685
7244, 4.553716, 49.119273, 45.849527
7245, 3.610917, 48.989815, 44.908804
7246, 3.211158, 46.633186, 43.675641
7247, 7.383232, 44.659653, 45.988523
7248, 6.159619, 45.275904, 45.692736
7249, 6.376957, 43.792141, 44.485681
7250, 8.181338, 43.615379, 45.423683
7251, 9.934533, 43.119421, 45.443639
7252, 11.545532, 42.862679, 45.399325
7253, 5.705731, 46.572531, 46.107951
7254, 4.846641, 44.791680, 44.166487
7255, 8.652279, 42.018181, 43.513562
7256, 8.557275, 42.617041, 44.369561
7257, 7.526741, 42.659740, 43.861554
7258, 9.688680, 41.772568, 43.520634
7259, 9.874385, 42.335655, 44.416831
7260, 11.318061, 42.013958, 44.129890
7261, 16.328976, 41.761482, 41.701037
7262, 18.494087, 42.847289, 42.174879
7263, 21.204455, 43.924492, 42.022509
7264, 13.264397, 42.867491, 45.321170
7265, 14.897014, 43.070081, 45.228635
7266, 17.019094, 42.748250, 43.388745
7267, 16.634255, 43.222624, 44.748005
7268, 18.382841, 43.560932, 44.599883
7269, 14.868115, 41.949627, 43.166568
7270, 14.746944, 42.442252, 44.142921
7271, 13.289533, 42.055275, 43.991164
7272, 16.042128, 42.293900, 43.100188
7273, 15.784825, 42.652759, 44.003700
7274, 20.556315, 44.016052, 45.297526
7275, 23.339087, 45.709383, 39.879706
7276, 23.500988, 45.006185, 41.915920
7277, 24.579745, 46.394564, 40.769410
7278, 25.213720, 46.810593, 41.133906
7279, 25.893047, 48.231264, 40.746571
7280, 26.021792, 49.269993, 40.482240
7281, 27.093326, 48.428069, 41.756951
7282, 26.604048, 47.325324, 42.139527
7283, 26.401487, 48.193263, 41.293801
7284, 26.754726, 49.181368, 41.185408
7285, 25.025097, 47.813924, 39.998831
7286, 25.356977, 48.299208, 40.071765
7287, 25.273084, 49.010098, 39.731024
7288, 24.572617, 53.555248, 40.810608
7289, 23.467106, 44.463656, 45.229957
7290, 20.433113, 44.182523, 48.330966
7291, 23.537223, 44.286954, 48.295259
7292, 18.061265, 43.905362, 46.175650
7293, 19.292434, 44.002982, 46.293234
7294, 18.063546, 44.170957, 47.566480
7295, 19.259501, 44.135930, 47.397834
7296, 18.396234, 44.297808, 49.013263
7297, 25.408812, 44.873061, 45.721225
7298, 25.128544, 45.120006, 44.388897
7299, 26.520307, 45.212921, 45.676859
7300, 26.443839, 45.786374, 44.139917
7301, 27.084370, 46.647651, 43.308252
7302, 25.456932, 44.702804, 46.749455
7303, 26.323929, 44.804106, 47.220535
7304, 24.746743, 44.512506, 47.262149
7305, 26.435819, 44.663410, 48.420555
7306, 25.509264, 44.491660, 48.989937
7307, 25.534028, 44.581372, 47.831639
7308, 24.490213, 44.589428, 46.102563
7309, 25.025074, 45.746027, 42.580669
7310, 26.070775, 46.227180, 42.930458
7311, 20.434505, 44.201095, 51.646958
7312, 23.512529, 44.308525, 51.654100
7313, 80.057141, 49.001853, 29.762241
7314, 81.997216, 48.074533, 28.621862
7315, 82.012978, 51.942351, 28.605795
7316, 80.031630, 51.032304, 29.725321
7317, 78.652157, 47.959367, 31.506909
7318, 80.541109, 46.381199, 30.177759
7319, 80.488446, 53.665970, 30.149963
7320, 78.577900, 52.070594, 31.498788
7321, 83.031171, 45.391599, 29.135136
7322, 85.828629, 45.169504, 28.455952
7323, 85.608897, 48.251425, 27.445669
7324, 81.772811, 43.456837, 31.303468
7325, 85.682844, 42.755326, 30.453837
7326, 89.151781, 45.286038, 28.553217
7327, 89.324877, 48.250574, 27.511623
7328, 89.365255, 42.941160, 30.467369
7329, 85.580264, 51.808258, 27.445607
7330, 89.291248, 51.755891, 27.515480
7331, 83.460222, 41.442155, 33.188317
7332, 86.060256, 41.043975, 32.952979
7333, 82.939175, 40.973296, 35.705223
7334, 86.034565, 40.220779, 35.914932
7335, 80.487479, 42.421030, 34.955475
7336, 89.237046, 41.233168, 32.944858
7337, 89.460828, 40.337336, 35.906356
7338, 79.235902, 45.120137, 32.429546
7339, 78.428187, 44.609798, 35.199419
7340, 77.038524, 47.675886, 35.149445
7341, 76.984297, 52.275324, 35.182233
7342, 76.323900, 48.774351, 36.711594
7343, 76.293991, 51.276136, 36.759027
7344, 75.635574, 47.817092, 38.849448
7345, 76.833812, 46.497994, 37.504425
7346, 76.725879, 53.480412, 37.560676
7347, 75.534005, 52.184645, 38.922039
7348, 80.318252, 42.457311, 38.029299
7349, 78.327885, 44.170578, 38.626214
7350, 82.545827, 41.354030, 39.005453
7351, 85.874918, 40.325816, 39.289703
7352, 91.796476, 45.581178, 29.206623
7353, 92.857687, 48.071903, 28.685755
7354, 93.078879, 43.835605, 31.176338
7355, 94.398022, 46.439928, 30.108993
7356, 92.871260, 51.886558, 28.656850
7357, 94.412224, 53.572583, 30.136285
7358, 94.973132, 48.924557, 29.719201
7359, 94.992544, 51.032641, 29.702078
7360, 96.668618, 47.743756, 31.372833
7361, 96.711810, 52.264608, 31.382480
7362, 91.835683, 41.884864, 33.114790
7363, 92.902443, 41.363811, 35.597070
7364, 94.399207, 42.805866, 33.687406
7365, 95.716511, 45.021027, 32.190080
7366, 96.746508, 44.126630, 34.679104
7367, 97.954501, 46.495028, 33.541851
7368, 97.949845, 53.606753, 33.727408
7369, 89.426108, 40.215915, 39.411150
7370, 92.845738, 41.102419, 39.377290
7371, 98.431050, 48.962707, 33.036224
7372, 98.410193, 51.068929, 33.096856
7373, 99.341749, 47.998517, 35.123048
7374, 99.311336, 52.030404, 35.286129
7375, 97.245658, 43.849630, 36.928270
7376, 97.216123, 43.834106, 38.583469
7377, 98.842050, 45.812149, 37.638860
7378, 98.264890, 44.955667, 37.226872
7379, 98.682582, 45.776778, 38.782795
7380, 98.065033, 44.788943, 38.551886
7381, 99.222151, 46.499859, 37.743773
7382, 99.219370, 46.822149, 38.700789
7383, 99.434165, 47.061441, 36.994201
7384, 99.904740, 48.992817, 37.493688
7385, 99.634049, 47.726062, 38.128382
7386, 98.518933, 45.695926, 35.789979
7387, 99.009423, 46.137815, 36.815488
7388, 95.322968, 42.419275, 36.544991
7389, 96.279038, 42.984876, 37.292163
7390, 94.932710, 42.083026, 38.689250
7391, 96.171753, 42.922526, 38.655723
7392, 80.447186, 42.598148, 39.340305
7393, 81.238919, 42.257213, 39.928090
7394, 81.051328, 42.862036, 41.742862
7395, 81.490477, 42.474878, 41.109502
7396, 82.849948, 42.895275, 43.663502
7397, 81.535204, 43.011630, 42.836398
7398, 83.555038, 42.438174, 43.127221
7399, 82.964143, 42.053392, 41.777029
7400, 84.845574, 42.128733, 43.304859
7401, 85.810023, 41.425811, 42.473145
7402, 85.078835, 43.104010, 45.263208
7403, 83.409815, 43.263054, 44.871794
7404, 85.116612, 42.537579, 44.210015
7405, 84.054140, 42.765741, 44.128180
7406, 86.669770, 42.945075, 45.386945
7407, 86.521193, 42.185978, 44.115710
7408, 79.848928, 43.094282, 39.898548
7409, 80.210687, 43.117312, 41.207809
7410, 80.611446, 42.701688, 40.249207
7411, 80.760907, 42.773288, 40.872924
7412, 76.720836, 45.519524, 39.762372
7413, 76.612665, 44.953500, 41.826019
7414, 79.187315, 43.714372, 42.003275
7415, 75.449187, 46.349053, 40.631448
7416, 73.771702, 48.027703, 41.055141
7417, 73.544159, 49.143044, 40.829614
7418, 72.984225, 48.427554, 41.494052
7419, 73.396509, 47.232647, 41.986990
7420, 74.235309, 48.043976, 40.584886
7421, 74.133536, 48.746203, 40.391060
7422, 74.881335, 46.716896, 40.968085
7423, 74.761748, 48.246241, 39.905047
7424, 74.626989, 48.992949, 39.782984
7425, 75.090947, 47.797391, 39.701213
7426, 75.389294, 53.615969, 40.719282
7427, 76.629260, 44.475915, 45.228005
7428, 79.587568, 44.007755, 45.363811
7429, 76.647599, 44.284863, 48.332537
7430, 79.675962, 44.225074, 48.373602
7431, 73.656530, 45.673939, 44.212033
7432, 72.963331, 46.448919, 43.333383
7433, 73.538659, 45.167884, 45.790708
7434, 74.970257, 45.088095, 44.421504
7435, 74.657811, 44.872500, 45.788973
7436, 73.722267, 44.757217, 47.445140
7437, 74.577192, 44.690778, 46.832665
7438, 74.666112, 44.534179, 47.951734
7439, 73.626026, 44.593691, 49.135963
7440, 74.978149, 44.423851, 49.084197
7441, 75.354405, 44.494358, 47.315955
7442, 75.563148, 44.604826, 46.121771
7443, 73.997853, 46.124372, 42.888937
7444, 75.050823, 45.663587, 42.521902
7445, 80.803596, 44.035990, 46.381334
7446, 81.990923, 43.923300, 46.308058
7447, 81.638728, 43.596016, 44.829174
7448, 80.827463, 44.171978, 47.467777
7449, 81.997585, 44.191846, 47.655673
7450, 81.655992, 44.334753, 49.056264
7451, 76.641319, 44.271632, 51.662573
7452, 79.645783, 44.204431, 51.647606
7453, 94.020581, 41.813854, 40.445955
7454, 94.380259, 42.832274, 42.526425
7455, 93.979892, 42.210596, 41.753251
7456, 90.219473, 41.790129, 43.580466
7457, 89.274753, 41.212587, 42.770752
7458, 91.212103, 41.984943, 43.539447
7459, 93.785494, 43.014041, 43.449368
7460, 92.233051, 41.746547, 42.577866
7461, 89.944384, 43.131162, 45.502456
7462, 88.389404, 42.964755, 45.482318
7463, 89.990590, 42.342982, 44.480453
7464, 88.536790, 42.074254, 44.249001
7465, 91.481169, 43.396186, 45.334010
7466, 91.270522, 42.568012, 44.396293
7467, 93.165172, 43.784357, 44.868112
7468, 92.250765, 42.649299, 44.030515
7469, 97.116114, 44.097414, 40.192228
7470, 96.108154, 43.110660, 40.015479
7471, 95.074096, 42.390074, 40.130243
7472, 96.400654, 44.095443, 41.720046
7473, 95.271442, 43.393155, 42.287312
7474, 95.900122, 43.283268, 41.035776
7475, 95.090312, 42.772307, 41.320214
7476, 10.762918, 54.713138, 28.564879
7477, 8.071818, 54.425790, 29.235931
7478, 10.558467, 57.053223, 30.515409
7479, 6.797310, 56.176668, 31.313327
7480, 14.104170, 54.817200, 28.527994
7481, 14.178189, 57.242198, 30.475660
7482, 4.175038, 55.049742, 32.437767
7483, 5.532530, 57.204821, 33.950333
7484, 3.188730, 56.016647, 35.202357
7485, 1.398330, 54.324503, 36.270667
7486, 2.937422, 56.183302, 39.543713
7487, 1.323177, 54.399302, 38.367086
7488, 5.023092, 57.578749, 40.635303
7489, 7.064307, 58.596056, 35.681789
7490, 4.903107, 57.658354, 36.397069
7491, 6.905022, 58.781225, 39.433742
7492, 4.780170, 57.795037, 38.405341
7493, 10.645736, 58.704045, 33.016873
7494, 8.088659, 58.103032, 33.205161
7495, 10.401274, 59.600104, 35.910784
7496, 13.728911, 58.928941, 32.993724
7497, 13.637741, 59.782122, 35.873821
7498, 10.360748, 59.740603, 39.317756
7499, 13.702439, 59.782036, 39.159892
7500, 16.889389, 54.608971, 29.141138
7501, 18.137444, 56.588256, 31.381710
7502, 19.324370, 57.711400, 35.291879
7503, 20.783291, 54.855573, 32.480445
7504, 21.686847, 55.293803, 35.325990
7505, 16.284821, 58.547595, 33.240748
7506, 16.615880, 59.130881, 35.786384
7507, 19.330459, 57.646234, 38.859776
7508, 21.991810, 55.469998, 38.731216
7509, 16.638910, 59.003759, 38.931698
7510, 5.572833, 56.966920, 42.809528
7511, 3.480249, 54.880306, 42.799883
7512, 3.446699, 52.514471, 44.368179
7513, 2.578925, 51.815823, 43.554218
7514, 4.887061, 52.594603, 45.731260
7515, 4.002485, 52.345901, 44.988547
7516, 3.604057, 51.007671, 44.923127
7517, 4.567492, 50.884471, 45.852790
7518, 4.043789, 54.161432, 44.125829
7519, 3.705454, 53.442374, 44.196673
7520, 4.849581, 54.252733, 44.893768
7521, 4.131204, 53.305955, 44.716245
7522, 3.235684, 53.385484, 43.697382
7523, 1.876453, 50.732657, 42.741582
7524, 1.860040, 49.323114, 42.718770
7525, 10.598392, 58.855887, 42.488375
7526, 7.795680, 58.195422, 42.540880
7527, 13.823038, 58.745654, 42.197406
7528, 5.769744, 53.406381, 46.106484
7529, 7.431316, 55.273411, 45.990330
7530, 6.230740, 54.677244, 45.697209
7531, 8.208552, 56.304641, 45.443365
7532, 6.424209, 56.200415, 44.539092
7533, 9.925560, 56.813824, 45.546804
7534, 11.537521, 57.065828, 45.475584
7535, 4.879991, 55.197834, 44.196002
7536, 8.691542, 57.958502, 43.513420
7537, 8.570882, 57.358840, 44.366830
7538, 7.572008, 57.328566, 43.887087
7539, 9.720356, 58.205663, 43.527637
7540, 9.879091, 57.647748, 44.462784
7541, 11.332170, 57.971022, 44.176411
7542, 18.549130, 57.130736, 42.236930
7543, 21.196221, 56.009142, 42.063695
7544, 16.354111, 58.209027, 41.691458
7545, 14.865049, 56.912104, 45.176298
7546, 13.247800, 57.067091, 45.331337
7547, 17.049435, 57.202140, 43.382802
7548, 16.626998, 56.741004, 44.741636
7549, 18.390646, 56.403964, 44.599234
7550, 20.522927, 55.948888, 45.315894
7551, 23.404702, 54.210304, 39.857424
7552, 23.499572, 54.891897, 41.944068
7553, 25.211537, 53.169492, 41.151524
7554, 26.038260, 50.726356, 40.444247
7555, 25.929893, 51.787517, 40.710592
7556, 26.692149, 52.730669, 42.124926
7557, 27.154519, 51.484839, 41.687209
7558, 26.757715, 50.777080, 41.115765
7559, 26.442063, 51.854764, 41.239843
7560, 25.035528, 52.152596, 40.001123
7561, 25.297768, 50.972454, 39.761249
7562, 25.395708, 51.668560, 40.072436
7563, 23.406638, 55.538411, 45.249332
7564, 14.880983, 58.005298, 43.150882
7565, 14.743285, 57.532788, 44.132644
7566, 13.299626, 57.905593, 44.008804
7567, 16.057351, 57.672700, 43.087904
7568, 15.801294, 57.295604, 44.011334
7569, 23.333892, 55.706758, 48.333449
7570, 20.354453, 55.795384, 48.345889
7571, 18.045925, 56.075173, 46.182697
7572, 19.260965, 55.955826, 46.302570
7573, 18.036394, 55.834951, 47.577853
7574, 19.216844, 55.843825, 47.407329
7575, 18.349410, 55.691037, 49.024137
7576, 27.082465, 53.486713, 43.388036
7577, 25.326434, 55.165180, 45.799766
7578, 25.072711, 54.913801, 44.441587
7579, 26.459541, 54.844352, 45.778469
7580, 26.403034, 54.293844, 44.211503
7581, 25.354306, 55.330763, 46.843930
7582, 26.222429, 55.245651, 47.431815
7583, 26.333076, 55.393424, 49.118857
7584, 24.577111, 55.515568, 47.332346
7585, 24.980621, 55.561359, 49.072137
7586, 25.271319, 55.465425, 47.945125
7587, 24.385496, 55.438815, 46.151505
7588, 25.018957, 54.265451, 42.600465
7589, 26.044923, 53.833763, 42.979457
7590, 23.322565, 55.705456, 51.646273
7591, 20.355707, 55.768266, 51.645366
7592, 85.802759, 54.833158, 28.506008
7593, 83.040437, 54.604352, 29.153382
7594, 85.671657, 57.214742, 30.498578
7595, 81.731552, 56.453190, 31.349049
7596, 89.121652, 54.752735, 28.579258
7597, 89.326940, 57.084980, 30.538913
7598, 79.177264, 54.880717, 32.458173
7599, 80.458066, 57.497763, 34.969740
7600, 78.347190, 55.368744, 35.247601
7601, 86.046078, 58.882931, 32.988328
7602, 83.439000, 58.479596, 33.183972
7603, 85.995930, 59.746416, 35.902308
7604, 82.911853, 59.045733, 35.706126
7605, 89.186798, 58.730467, 32.978507
7606, 89.413421, 59.646743, 35.840464
7607, 80.324945, 57.497583, 38.051408
7608, 78.310943, 55.765707, 38.680863
7609, 82.545719, 58.632508, 39.015127
7610, 85.867186, 59.677720, 39.269776
7611, 91.808685, 54.456666, 29.216009
7612, 93.088471, 56.225674, 31.275508
7613, 94.348391, 57.232464, 33.854344
7614, 95.747047, 55.093963, 32.323499
7615, 96.702502, 56.109087, 35.044089
7616, 91.783589, 58.124664, 33.146597
7617, 92.810678, 58.622665, 35.554487
7618, 89.423794, 59.760383, 39.299743
7619, 92.890925, 58.863718, 39.192259
7620, 99.161765, 53.522878, 37.866771
7621, 99.158295, 53.213021, 38.767079
7622, 99.378148, 52.972327, 37.086784
7623, 99.563475, 52.320642, 38.174026
7624, 99.867662, 51.057701, 37.517711
7625, 98.828558, 54.193824, 37.742887
7626, 98.661052, 54.252419, 38.819680
7627, 97.520028, 55.873519, 36.895584
7628, 97.122692, 56.300452, 38.321901
7629, 96.434780, 56.867532, 37.271198
7630, 98.299529, 55.006985, 37.313824
7631, 98.067227, 55.246632, 38.532226
7632, 98.534855, 54.377350, 36.030154
7633, 98.978906, 53.881043, 36.955414
7634, 76.626187, 54.397451, 39.854684
7635, 79.193011, 56.200201, 42.042058
7636, 76.589021, 54.964097, 41.920777
7637, 73.510692, 50.847094, 40.887461
7638, 73.675375, 51.912483, 41.189494
7639, 73.363623, 52.677569, 42.097197
7640, 72.962419, 51.519306, 41.583661
7641, 74.081601, 51.230595, 40.480186
7642, 74.090880, 51.915279, 40.719131
7643, 74.755400, 53.237053, 41.138772
7644, 74.562896, 50.935861, 39.816237
7645, 74.587995, 51.756572, 40.093885
7646, 74.849420, 52.214042, 39.997058
7647, 74.025771, 49.542203, 40.297617
7648, 74.015819, 50.441708, 40.344656
7649, 79.866952, 56.875377, 39.957003
7650, 80.470860, 57.373751, 39.377875
7651, 80.238192, 56.785618, 41.270470
7652, 81.086605, 57.071755, 41.762543
7653, 81.550644, 56.921453, 42.853170
7654, 80.772097, 57.152830, 40.986185
7655, 80.633475, 57.240835, 40.325100
7656, 81.512017, 57.460762, 41.183368
7657, 81.264136, 57.703436, 39.978831
7658, 79.587148, 55.964200, 45.374553
7659, 76.641280, 55.507761, 45.253337
7660, 83.573791, 57.537622, 43.134976
7661, 82.972735, 57.919321, 41.786221
7662, 82.871297, 57.047591, 43.667479
7663, 84.863002, 57.876686, 43.292200
7664, 85.811176, 58.560750, 42.443026
7665, 85.127390, 57.447540, 44.202587
7666, 84.069897, 57.200228, 44.133790
7667, 85.085996, 56.888330, 45.215679
7668, 83.429882, 56.697378, 44.842726
7669, 86.522183, 57.821852, 44.082641
7670, 86.659174, 57.062352, 45.318102
7671, 79.661076, 55.752465, 48.370831
7672, 76.681776, 55.689554, 48.327792
7673, 72.966440, 53.476489, 43.406414
7674, 73.632001, 54.273996, 44.215461
7675, 73.565216, 54.779650, 45.790073
7676, 74.969534, 54.864726, 44.448730
7677, 74.686545, 55.098395, 45.793681
7678, 73.802053, 55.197520, 47.428574
7679, 74.640392, 55.272483, 46.826893
7680, 73.688261, 55.395521, 49.114246
7681, 74.743967, 55.427263, 47.933017
7682, 75.036587, 55.555197, 49.066405
7683, 75.414628, 55.478165, 47.309824
7684, 75.598805, 55.383694, 46.128413
7685, 73.955978, 53.808902, 42.960126
7686, 75.002813, 54.290073, 42.600315
7687, 80.797024, 55.932494, 46.373644
7688, 81.992514, 56.021203, 46.284350
7689, 81.653801, 56.336973, 44.813561
7690, 80.813584, 55.790833, 47.459030
7691, 81.984508, 55.771379, 47.640674
7692, 81.585447, 55.648739, 49.052616
7693, 79.641183, 55.776846, 51.646780
7694, 76.680603, 55.711570, 51.656341
7695, 94.041373, 58.150156, 40.267881
7696, 93.962033, 57.791869, 41.570514
7697, 94.265643, 57.211205, 42.462051
7698, 90.263794, 58.165617, 43.652790
7699, 89.265995, 58.870718, 42.639633
7700, 91.600423, 57.826282, 43.599038
7701, 92.293638, 57.140152, 44.199607
7702, 92.300717, 58.302983, 42.217773
7703, 93.511718, 57.049390, 43.494517
7704, 89.983587, 57.626495, 44.507975
7705, 88.537245, 57.945584, 44.224352
7706, 90.003858, 56.870191, 45.446741
7707, 88.400782, 57.086411, 45.429211
7708, 91.102777, 57.321320, 44.541939
7709, 91.774480, 56.463842, 45.256174
7710, 96.124890, 56.859871, 40.028034
7711, 95.160157, 57.564285, 39.977218
7712, 95.196097, 57.737613, 38.317850
7713, 96.186983, 57.039887, 38.919005
7714, 97.097251, 55.917967, 40.156297
7715, 95.901216, 56.719208, 40.999685
7716, 95.098108, 57.233151, 41.223063
7717, 96.382441, 55.933189, 41.695888
7718, 95.239192, 56.662850, 42.251787
7719, 4.758995, 42.187162, 61.535118
7720, 6.874902, 41.175983, 60.503721
7721, 4.974710, 42.413740, 59.311887
7722, 2.901705, 43.840764, 60.390470
7723, 4.851880, 42.308296, 63.563709
7724, 7.015267, 41.359830, 64.286624
7725, 5.491075, 42.789901, 66.045537
7726, 3.131716, 44.018211, 64.793755
7727, 7.762093, 41.741389, 57.425742
7728, 10.606401, 41.140240, 57.498031
7729, 5.563182, 42.990352, 57.215476
7730, 10.325651, 40.228806, 60.629239
7731, 13.829230, 41.197812, 57.786786
7732, 13.677205, 40.238952, 60.812766
7733, 10.325515, 40.334687, 64.051525
7734, 13.622070, 40.170485, 64.077462
7735, 4.109319, 46.604191, 55.308012
7736, 4.840254, 45.662819, 55.154188
7737, 4.851970, 47.378242, 54.266685
7738, 3.974183, 47.594734, 55.010721
7739, 3.711211, 46.465920, 55.833240
7740, 4.032111, 45.745573, 55.893729
7741, 3.472193, 47.452819, 55.618478
7742, 4.514773, 49.112092, 54.134593
7743, 3.564812, 48.977720, 55.086686
7744, 2.147863, 46.949970, 57.685342
7745, 2.576670, 48.168150, 56.468218
7746, 3.246043, 46.577345, 56.305283
7747, 3.457694, 45.028959, 57.193244
7748, 1.599276, 46.123643, 59.520019
7749, 1.227825, 48.805625, 58.426432
7750, 2.066572, 53.052747, 57.678253
7751, 1.181314, 51.159298, 58.417486
7752, 0.486875, 48.002294, 60.786498
7753, 1.551098, 53.924825, 59.565396
7754, 0.469940, 52.044619, 60.837465
7755, 1.283747, 45.647875, 61.633519
7756, 1.299591, 45.714846, 63.742600
7757, 1.944576, 46.449665, 66.257064
7758, 0.560680, 48.117506, 64.650583
7759, 1.999362, 53.665043, 66.175051
7760, 0.617811, 52.046721, 64.629032
7761, 6.393799, 43.756482, 55.507282
7762, 8.185828, 43.615778, 54.594145
7763, 7.379821, 44.675481, 54.042663
7764, 6.196976, 45.282575, 54.335406
7765, 9.942661, 43.085962, 54.569106
7766, 11.566091, 42.845046, 54.626987
7767, 5.733408, 46.570852, 53.912503
7768, 4.882794, 44.721707, 55.821170
7769, 7.541708, 42.621680, 56.108772
7770, 8.565565, 42.594578, 55.640651
7771, 8.677285, 41.978991, 56.469852
7772, 9.891691, 42.318738, 55.598069
7773, 9.727761, 41.768881, 56.477990
7774, 11.356326, 42.010253, 55.870930
7775, 20.566014, 44.003900, 54.691997
7776, 23.438467, 44.473910, 54.753438
7777, 18.402922, 44.299444, 50.971518
7778, 18.080222, 44.164503, 52.422293
7779, 19.268474, 44.159338, 52.589985
7780, 18.084014, 43.892289, 53.819546
7781, 19.301160, 44.010326, 53.693579
7782, 18.418105, 43.544109, 55.404707
7783, 18.555705, 42.839582, 57.800986
7784, 21.215031, 43.941415, 57.984467
7785, 25.428984, 44.714944, 53.215205
7786, 24.684947, 44.516925, 52.682487
7787, 26.283526, 44.793376, 52.731741
7788, 25.491234, 44.580549, 52.115077
7789, 25.494110, 44.481270, 50.932236
7790, 26.404114, 44.645388, 51.495667
7791, 25.368406, 44.877367, 54.249180
7792, 26.486206, 45.205038, 54.298858
7793, 25.108405, 45.115629, 55.612956
7794, 27.083729, 46.622719, 56.714219
7795, 26.412932, 45.757144, 55.860322
7796, 24.444353, 44.597559, 53.861032
7797, 23.479236, 45.037959, 58.139382
7798, 24.573931, 46.421421, 59.278038
7799, 24.580708, 53.574723, 59.231328
7800, 16.401848, 41.756607, 58.291493
7801, 16.633148, 40.947190, 61.069282
7802, 19.322000, 42.338300, 61.207634
7803, 16.629608, 40.740979, 64.245070
7804, 19.320916, 42.240304, 64.790510
7805, 13.289150, 42.849866, 54.695948
7806, 14.918204, 43.021844, 54.791492
7807, 16.666114, 43.213340, 55.251043
7808, 17.074860, 42.746102, 56.623658
7809, 13.327885, 42.070588, 56.013642
7810, 14.774935, 42.435806, 55.872820
7811, 14.913397, 41.951103, 56.835577
7812, 15.820306, 42.634964, 56.009624
7813, 16.100337, 42.280322, 56.892607
7814, 21.972044, 44.490707, 61.341207
7815, 23.284905, 46.738632, 62.495536
7816, 23.311089, 53.291680, 62.461634
7817, 21.653519, 44.643515, 64.686888
7818, 22.994364, 47.843534, 64.826448
7819, 22.983653, 52.146786, 64.836491
7820, 23.405610, 45.671320, 60.258982
7821, 24.374352, 47.890852, 61.101754
7822, 25.922654, 49.284087, 59.464191
7823, 25.782285, 48.288569, 59.200668
7824, 25.166095, 46.846283, 58.915602
7825, 26.683274, 49.174260, 58.779577
7826, 26.358449, 48.206689, 58.675409
7827, 26.600436, 47.313477, 57.910746
7828, 27.095177, 48.453026, 58.234117
7829, 25.006817, 47.865097, 60.023019
7830, 25.206205, 48.983379, 60.208150
7831, 25.269229, 48.353326, 59.932373
7832, 24.990399, 45.757265, 57.459721
7833, 26.026479, 46.213201, 57.082576
7834, 24.316259, 52.101878, 61.036797
7835, 23.693268, 48.823404, 63.139764
7836, 23.691233, 51.173300, 63.112175
7837, 8.062617, 41.866575, 66.765004
7838, 10.630929, 41.227341, 66.930586
7839, 10.516731, 42.902011, 69.400924
7840, 6.801232, 43.817108, 68.654068
7841, 13.698473, 41.019139, 66.982954
7842, 14.171072, 42.689408, 69.509946
7843, 4.112003, 44.964861, 67.606024
7844, 5.514178, 46.496418, 69.826542
7845, 3.221028, 47.908510, 68.583448
7846, 1.492701, 49.038175, 66.885537
7847, 3.221977, 52.319273, 68.529529
7848, 1.490543, 51.182338, 66.871424
7849, 5.516741, 53.622361, 69.761075
7850, 4.970915, 49.057429, 70.207596
7851, 7.113819, 48.162947, 71.241376
7852, 7.056375, 51.941402, 71.278035
7853, 4.940067, 51.131894, 70.224193
7854, 8.128228, 45.590822, 70.699079
7855, 10.774877, 45.221702, 71.402524
7856, 10.592163, 48.267930, 72.457266
7857, 14.099437, 45.137299, 71.499607
7858, 14.290998, 48.208238, 72.571981
7859, 10.595763, 51.762243, 72.433072
7860, 14.281898, 51.802793, 72.568704
7861, 16.294370, 41.363417, 66.786587
7862, 18.123002, 43.384519, 68.672332
7863, 19.418940, 46.296928, 69.844260
7864, 20.753503, 45.092138, 67.512066
7865, 21.328167, 47.931087, 68.500955
7866, 19.440021, 53.661206, 69.853702
7867, 21.344116, 52.026355, 68.503949
7868, 16.863078, 45.330787, 70.853345
7869, 17.913367, 48.023440, 71.403018
7870, 17.940598, 51.926846, 71.409964
7871, 19.903441, 48.939671, 70.264845
7872, 19.912272, 50.980662, 70.258006
7873, 76.558787, 44.450711, 54.746351
7874, 79.454646, 43.979659, 54.669398
7875, 74.986267, 44.426226, 50.919710
7876, 73.635313, 44.599739, 50.868299
7877, 73.760663, 44.767343, 52.561993
7878, 74.701316, 44.536343, 52.057888
7879, 74.603397, 44.685794, 53.166408
7880, 75.372659, 44.480654, 52.682594
7881, 73.528700, 45.172482, 54.197427
7882, 74.638270, 44.855246, 54.198990
7883, 72.910208, 46.486295, 56.594558
7884, 73.604895, 45.695116, 55.759344
7885, 74.891208, 45.091677, 55.546967
7886, 75.561215, 44.572807, 53.861809
7887, 80.794344, 44.140996, 52.567192
7888, 81.973224, 44.171207, 52.390122
7889, 81.642799, 44.319752, 50.970069
7890, 80.735981, 43.988201, 53.669952
7891, 81.955060, 43.892817, 53.784506
7892, 81.607036, 43.521586, 55.366875
7893, 78.752216, 43.904651, 57.946451
7894, 81.467749, 42.844251, 57.811723
7895, 76.378121, 45.033001, 58.090877
7896, 75.333712, 46.382944, 59.236426
7897, 75.454648, 53.617261, 59.326937
7898, 83.626852, 41.769011, 58.321071
7899, 86.139237, 41.213189, 57.786685
7900, 83.357568, 40.979500, 61.032387
7901, 86.265093, 40.209445, 60.786212
7902, 80.677266, 42.343583, 61.152136
7903, 89.356028, 41.105109, 57.501894
7904, 89.641613, 40.215324, 60.644917
7905, 83.348250, 40.762711, 64.157378
7906, 86.361519, 40.174482, 64.032313
7907, 80.646604, 42.246160, 64.716660
7908, 89.654172, 40.355809, 64.067400
7909, 76.476334, 45.656293, 60.234475
7910, 77.989013, 44.485665, 61.266474
7911, 76.690298, 46.756601, 62.424796
7912, 75.610134, 47.894598, 61.041129
7913, 73.318450, 47.274151, 57.862357
7914, 72.845827, 48.461725, 58.348684
7915, 73.245658, 49.195731, 58.877085
7916, 73.578154, 48.115506, 58.740000
7917, 74.694121, 46.815453, 58.831085
7918, 74.016335, 49.302823, 59.545764
7919, 74.039146, 48.254388, 59.245850
7920, 74.733369, 49.054890, 60.249248
7921, 74.622894, 48.330590, 59.902318
7922, 74.891383, 47.847859, 59.969372
7923, 73.911138, 46.175344, 57.008381
7924, 74.913441, 45.730744, 57.378842
7925, 76.751344, 53.276142, 62.481437
7926, 75.699174, 52.133259, 61.124285
7927, 78.283373, 44.623791, 64.607550
7928, 76.943467, 47.863044, 64.768500
7929, 76.300838, 48.800006, 63.068103
7930, 76.948958, 52.130121, 64.791571
7931, 76.311508, 51.223186, 63.081758
7932, 83.329465, 43.203207, 55.222472
7933, 82.940444, 42.753302, 56.605944
7934, 85.094059, 43.062125, 54.787398
7935, 86.696343, 42.880515, 54.686645
7936, 84.152698, 42.663421, 55.953381
7937, 85.208800, 42.456500, 55.858014
7938, 83.903382, 42.306535, 56.900828
7939, 85.074902, 41.965258, 56.832933
7940, 86.646208, 42.068961, 56.006721
7941, 92.145567, 41.764538, 57.398848
7942, 94.335066, 43.098057, 57.108665
7943, 93.107652, 41.196041, 60.539529
7944, 94.998631, 42.495121, 59.330753
7945, 92.987666, 41.372317, 64.304562
7946, 94.508480, 42.775503, 66.033511
7947, 95.224851, 42.246088, 61.554153
7948, 97.089149, 43.921466, 60.447722
7949, 95.161865, 42.345308, 63.590052
7950, 96.859770, 44.048206, 64.810651
7951, 88.397419, 42.853578, 54.626004
7952, 89.968028, 43.031807, 54.576876
7953, 91.570913, 43.351925, 54.710137
7954, 93.426159, 43.863400, 55.277297
7955, 94.067229, 45.489752, 54.406730
7956, 94.344738, 46.667050, 53.970804
7957, 88.598075, 41.993570, 55.865022
7958, 90.021835, 42.268536, 55.602318
7959, 90.207969, 41.726630, 56.493950
7960, 91.298060, 42.514921, 55.654942
7961, 91.224704, 41.959413, 56.480580
7962, 92.324519, 42.666295, 55.998800
7963, 96.553914, 45.201640, 57.122234
7964, 97.948495, 47.077719, 57.661013
7965, 98.490009, 46.163189, 59.574477
7966, 97.826114, 52.995200, 57.605218
7967, 98.424132, 53.876572, 59.573351
7968, 98.049313, 46.456124, 66.225696
7969, 97.987092, 53.590918, 66.235290
7970, 95.216267, 45.862852, 55.139857
7971, 95.912426, 46.765455, 55.290262
7972, 96.049911, 47.762331, 54.983204
7973, 95.144926, 47.486190, 54.303076
7974, 95.999117, 45.940935, 55.880487
7975, 96.317849, 46.640728, 55.781641
7976, 96.560215, 47.583471, 55.584647
7977, 96.418307, 49.048122, 55.038359
7978, 95.429871, 49.156865, 54.141993
7979, 97.474505, 48.241201, 56.442515
7980, 96.793789, 46.753665, 56.262403
7981, 95.036154, 44.936416, 55.674471
7982, 98.789152, 48.863524, 58.434815
7983, 98.755271, 51.190856, 58.424448
7984, 99.517039, 48.007432, 60.886934
7985, 99.497280, 52.061053, 60.860794
7986, 98.708510, 45.688335, 61.725840
7987, 98.604328, 45.736103, 63.811905
7988, 99.375371, 48.062855, 64.707372
7989, 99.348666, 51.980625, 64.686631
7990, 83.699910, 41.325427, 66.696203
7991, 86.279435, 40.982759, 66.935833
7992, 85.821591, 42.639845, 69.468718
7993, 81.868130, 43.345447, 68.545173
7994, 89.375785, 41.254680, 66.917462
7995, 89.468806, 42.844472, 69.412824
7996, 79.120464, 45.005505, 67.424266
7997, 80.472133, 46.263265, 69.800080
7998, 78.584322, 47.910970, 68.401841
7999, 80.475913, 53.631481, 69.859780
8000, 78.563618, 51.962627, 68.479477
8001, 80.009945, 48.910536, 70.189367
8002, 82.007492, 47.957174, 71.387231
8003, 81.993593, 51.895494, 71.418772
8004, 79.982101, 50.931604, 70.234704
8005, 83.088922, 45.228120, 70.816938
8006, 85.865226, 45.043895, 71.456079
8007, 85.639692, 48.143941, 72.524442
8008, 89.203795, 45.207364, 71.334824
8009, 89.374911, 48.205829, 72.456152
8010, 85.614816, 51.752702, 72.549157
8011, 89.352378, 51.733349, 72.469609
8012, 91.932737, 41.902835, 66.743099
8013, 93.189774, 43.784182, 68.644765
8014, 94.468765, 46.447014, 69.779280
8015, 95.876790, 44.990793, 67.583066
8016, 96.732715, 47.867276, 68.521958
8017, 94.450928, 53.590680, 69.797406
8018, 96.741645, 52.234889, 68.567225
8019, 91.883129, 45.533500, 70.692524
8020, 92.913216, 48.104480, 71.267349
8021, 92.890905, 51.906828, 71.248179
8022, 95.013271, 48.989803, 70.185579
8023, 95.004817, 51.054457, 70.185671
8024, 98.480844, 48.981905, 66.906996
8025, 98.470098, 51.103066, 66.898525
8026, 3.557026, 51.034727, 55.065669
8027, 4.497402, 50.914727, 54.125186
8028, 4.826711, 52.644722, 54.274272
8029, 3.943411, 52.409234, 55.015406
8030, 2.538237, 51.811789, 56.446364
8031, 3.427399, 52.547053, 55.617252
8032, 4.820938, 54.338038, 55.183856
8033, 4.087589, 53.413197, 55.327252
8034, 4.024333, 54.237962, 55.935264
8035, 3.670631, 53.526816, 55.844404
8036, 3.451463, 54.941969, 57.248656
8037, 3.210121, 53.415775, 56.315131
8038, 1.835896, 50.726911, 57.240539
8039, 1.847355, 49.251368, 57.254810
8040, 5.531794, 57.014176, 57.288118
8041, 4.990636, 57.589404, 59.439914
8042, 2.932221, 56.199260, 60.477826
8043, 1.294691, 54.401256, 61.662979
8044, 3.185195, 56.075737, 64.777911
8045, 1.387741, 54.345643, 63.739495
8046, 5.521071, 57.240410, 66.013320
8047, 6.866967, 58.796374, 60.619202
8048, 4.795967, 57.779789, 61.618608
8049, 7.035289, 58.607905, 64.304562
8050, 4.897237, 57.674740, 63.584194
8051, 5.709169, 53.448857, 53.920627
8052, 7.349452, 55.346282, 54.037719
8053, 6.161096, 54.726589, 54.339680
8054, 8.150671, 56.421772, 54.603603
8055, 6.361620, 56.279800, 55.556038
8056, 9.906258, 56.944179, 54.546940
8057, 11.546643, 57.158111, 54.623105
8058, 4.868539, 55.261503, 55.886022
8059, 10.584575, 58.862606, 57.571100
8060, 7.772734, 58.266612, 57.512837
8061, 10.318525, 59.735348, 60.744322
8062, 13.837753, 58.771805, 57.821171
8063, 13.720507, 59.785124, 60.845613
8064, 10.333595, 59.648444, 64.113132
8065, 13.670741, 59.784331, 64.089784
8066, 7.529918, 57.413055, 56.165929
8067, 8.538633, 57.449249, 55.679218
8068, 8.671419, 58.024256, 56.543262
8069, 9.861640, 57.723080, 55.629379
8070, 9.705538, 58.245763, 56.546557
8071, 11.329115, 58.010422, 55.901022
8072, 23.398376, 55.519905, 54.745569
8073, 20.534698, 55.965472, 54.676908
8074, 18.353574, 55.673602, 50.978029
8075, 18.044430, 55.777218, 52.427651
8076, 19.223643, 55.811174, 52.589947
8077, 18.060097, 56.045267, 53.827702
8078, 19.271920, 55.958842, 53.692302
8079, 18.411684, 56.431937, 55.392907
8080, 18.559780, 57.148597, 57.809115
8081, 21.220411, 56.039720, 57.940051
8082, 25.286533, 55.342711, 53.114360
8083, 26.189556, 55.257009, 52.529395
8084, 26.322137, 55.393525, 50.842386
8085, 24.545844, 55.516081, 52.641717
8086, 25.249107, 55.462337, 52.018745
8087, 24.972060, 55.558882, 50.896252
8088, 25.288932, 55.168329, 54.176165
8089, 26.432195, 54.857779, 54.190380
8090, 27.084937, 53.502689, 56.609969
8091, 25.056740, 54.917644, 55.545033
8092, 26.383984, 54.328310, 55.774570
8093, 24.352883, 55.426736, 53.835730
8094, 23.518693, 54.901437, 58.052989
8095, 19.357140, 57.653220, 61.180911
8096, 14.899539, 56.935579, 54.834182
8097, 13.269833, 57.136226, 54.711075
8098, 16.678364, 56.759840, 55.254213
8099, 17.078625, 57.251618, 56.609113
8100, 22.024321, 55.535068, 61.305733
8101, 16.406942, 58.224049, 58.302760
8102, 16.644163, 59.005750, 61.060838
8103, 19.389586, 57.707370, 64.761896
8104, 21.673218, 55.336945, 64.698391
8105, 16.637924, 59.169709, 64.196510
8106, 23.417858, 54.275990, 60.177806
8107, 25.870901, 51.736226, 59.254574
8108, 25.926990, 50.691566, 59.486690
8109, 25.236402, 53.176097, 58.874945
8110, 26.404677, 51.820173, 58.750015
8111, 26.707834, 50.736350, 58.827245
8112, 27.154725, 51.472243, 58.312125
8113, 26.691372, 52.686898, 57.873792
8114, 25.031484, 52.176041, 60.011277
8115, 25.318172, 51.646021, 59.899648
8116, 25.210493, 50.979802, 60.252763
8117, 25.023791, 54.262553, 57.401558
8118, 26.075154, 53.827843, 57.034816
8119, 13.317143, 57.940056, 56.035861
8120, 14.775156, 57.550972, 55.885526
8121, 14.920418, 58.039762, 56.850711
8122, 15.834420, 57.334352, 55.999675
8123, 16.107672, 57.707525, 56.903066
8124, 6.839120, 56.206249, 68.607983
8125, 4.161593, 55.146284, 67.554091
8126, 10.529620, 57.079667, 69.411116
8127, 14.168714, 57.315201, 69.504909
8128, 10.627407, 58.709030, 66.934826
8129, 8.079825, 58.108640, 66.746118
8130, 13.716917, 58.923750, 66.963745
8131, 10.771970, 54.756639, 71.427878
8132, 8.103987, 54.467072, 70.722494
8133, 14.051185, 54.877067, 71.511739
8134, 18.119031, 56.605963, 68.619838
8135, 20.785921, 54.889405, 67.495971
8136, 16.268660, 58.617235, 66.752183
8137, 16.858195, 54.671330, 70.863778
8138, 79.487438, 55.969692, 54.681746
8139, 76.605901, 55.526075, 54.765247
8140, 73.686296, 55.400548, 50.845366
8141, 73.813970, 55.235801, 52.533969
8142, 74.660319, 55.314566, 53.145549
8143, 75.041914, 55.567310, 50.898503
8144, 74.772432, 55.463069, 52.023065
8145, 75.436753, 55.508517, 52.662073
8146, 73.559934, 54.812557, 54.205332
8147, 74.691447, 55.131941, 54.198352
8148, 72.925543, 53.485924, 56.645377
8149, 73.626192, 54.270442, 55.800408
8150, 74.945418, 54.882054, 55.574147
8151, 75.625417, 55.418974, 53.852888
8152, 80.791305, 55.829100, 52.576332
8153, 81.979846, 55.814799, 52.395631
8154, 81.581000, 55.670713, 50.966057
8155, 80.753696, 55.972530, 53.682182
8156, 81.980573, 56.097665, 53.795777
8157, 81.643295, 56.434169, 55.378783
8158, 78.803210, 56.084049, 57.964016
8159, 81.504388, 57.154428, 57.833919
8160, 76.550449, 54.967136, 58.135645
8161, 78.054026, 55.494933, 61.320455
8162, 76.676446, 54.322385, 60.229152
8163, 72.891656, 51.526205, 58.362257
8164, 73.352195, 52.704608, 57.932819
8165, 73.623510, 51.852867, 58.781936
8166, 73.276629, 50.795715, 58.887456
8167, 74.830001, 53.231070, 58.965577
8168, 74.190152, 51.819865, 59.331281
8169, 74.044771, 50.755152, 59.551090
8170, 74.765324, 51.745573, 60.020613
8171, 74.804722, 51.052596, 60.265944
8172, 75.043904, 52.165250, 60.104479
8173, 73.953420, 53.828976, 57.085300
8174, 75.004205, 54.293147, 57.467534
8175, 80.662561, 57.670696, 61.185806
8176, 80.655452, 57.673813, 64.766930
8177, 78.316976, 55.268115, 64.683919
8178, 83.390562, 56.789965, 55.245291
8179, 82.996026, 57.245788, 56.630063
8180, 85.148943, 56.966022, 54.824604
8181, 86.743397, 57.126161, 54.715254
8182, 86.193108, 58.746607, 57.821247
8183, 83.654006, 58.214719, 58.309835
8184, 86.334623, 59.739935, 60.858995
8185, 83.375143, 59.018107, 61.073081
8186, 89.443960, 58.898734, 57.530640
8187, 89.717637, 59.753120, 60.727407
8188, 86.355067, 59.760794, 64.121815
8189, 83.345383, 59.219391, 64.230832
8190, 89.675622, 59.595481, 64.151189
8191, 84.216854, 57.331281, 55.973173
8192, 85.266269, 57.543569, 55.880826
8193, 83.973503, 57.703612, 56.919131
8194, 85.136032, 58.031558, 56.855786
8195, 86.703362, 57.912491, 56.030624
8196, 94.399601, 56.945624, 57.233958
8197, 94.963144, 57.527913, 59.364279
8198, 94.216528, 53.414701, 53.881536
8199, 92.579166, 55.328329, 53.989740
8200, 93.763898, 54.690421, 54.284708
8201, 90.068853, 56.860995, 54.480289
8202, 88.455207, 57.112216, 54.589309
8203, 91.801147, 56.372760, 54.541846
8204, 93.555669, 56.209928, 55.483414
8205, 96.515863, 54.923985, 57.134835
8206, 97.068410, 56.135650, 60.469751
8207, 92.228952, 58.258818, 57.462846
8208, 93.135065, 58.753235, 60.592606
8209, 94.455413, 57.177678, 66.100241
8210, 96.806905, 55.999818, 64.842005
8211, 92.971141, 58.550304, 64.347325
8212, 95.171082, 57.771108, 61.574573
8213, 95.101120, 57.652531, 63.618126
8214, 95.418342, 50.902874, 54.122965
8215, 96.397573, 51.027925, 55.016771
8216, 95.983875, 52.353925, 54.956280
8217, 95.090025, 52.586982, 54.242081
8218, 97.400679, 51.806317, 56.429277
8219, 96.524929, 52.514436, 55.586407
8220, 95.858786, 53.318851, 55.236679
8221, 95.118756, 54.270034, 55.080949
8222, 96.275819, 53.418248, 55.732446
8223, 95.923558, 54.187846, 55.827983
8224, 96.731318, 53.399260, 56.262182
8225, 95.069347, 55.213596, 55.793917
8226, 98.164324, 49.355217, 57.243274
8227, 98.133863, 50.717180, 57.239980
8228, 98.683139, 54.348655, 61.708252
8229, 98.576741, 54.288350, 63.818265
8230, 88.660945, 57.995433, 55.854045
8231, 90.114803, 57.693601, 55.546444
8232, 90.302295, 58.269201, 56.478485
8233, 91.445631, 57.432906, 55.626038
8234, 91.338251, 58.040707, 56.486060
8235, 92.445116, 57.382096, 56.122221
8236, 81.813453, 56.537639, 68.599466
8237, 79.161160, 54.838040, 67.492289
8238, 85.801409, 57.238711, 69.523009
8239, 89.472928, 57.042308, 69.467947
8240, 86.274640, 58.928064, 67.042804
8241, 83.680484, 58.619743, 66.779007
8242, 89.379237, 58.668150, 66.991746
8243, 85.836748, 54.814372, 71.494845
8244, 83.069686, 54.642021, 70.869646
8245, 89.189711, 54.680669, 71.432400
8246, 93.188326, 56.160864, 68.686523
8247, 95.816157, 55.059174, 67.602591
8248, 91.931954, 58.023829, 66.792670
8249, 91.863841, 54.394999, 70.745630
8250, 5.573864, 47.977202, 46.525287
8251, 6.260088, 47.105388, 46.722906
8252, 6.025955, 49.527593, 47.066411
8253, 5.445161, 49.224110, 46.629895
8254, 6.042639, 50.497345, 47.059125
8255, 5.475344, 50.794542, 46.617367
8256, 5.845300, 48.742638, 46.864336
8257, 5.920350, 48.232603, 46.831407
8258, 6.215235, 48.793962, 47.129482
8259, 6.367134, 48.000664, 47.074297
8260, 8.813074, 44.311160, 46.356556
8261, 10.156528, 43.826446, 46.329307
8262, 7.892890, 45.203395, 46.664824
8263, 6.873851, 45.972092, 46.580317
8264, 7.878990, 45.865792, 47.080061
8265, 8.301158, 45.678051, 47.220626
8266, 8.658358, 45.266646, 47.088705
8267, 8.681401, 46.247314, 47.866274
8268, 8.089847, 46.343676, 47.517733
8269, 8.391606, 45.899294, 47.431510
8270, 8.806212, 45.708917, 47.536657
8271, 11.636855, 43.626885, 46.441381
8272, 13.297724, 43.618166, 46.567564
8273, 10.936716, 44.290338, 47.132502
8274, 11.190276, 43.890915, 46.708346
8275, 11.903661, 44.494670, 47.972972
8276, 11.205443, 44.547500, 47.627972
8277, 11.531212, 44.149055, 47.199076
8278, 12.118621, 44.168558, 47.365920
8279, 9.303704, 45.091837, 47.292014
8280, 9.765973, 44.601173, 47.012278
8281, 10.398458, 44.411741, 47.118158
8282, 10.086379, 45.256221, 47.932095
8283, 9.497560, 45.429852, 47.753405
8284, 9.902308, 44.954442, 47.473146
8285, 10.448076, 44.848247, 47.649125
8286, 9.197710, 45.943561, 48.021208
8287, 10.463163, 43.993949, 46.613591
8288, 9.066622, 44.707695, 46.844109
8289, 12.551970, 44.543108, 48.392537
8290, 13.323087, 44.255323, 47.891197
8291, 6.805923, 47.669787, 47.272873
8292, 6.931283, 47.077280, 47.149875
8293, 7.647102, 47.853985, 47.958096
8294, 7.132158, 47.942678, 47.589767
8295, 7.394923, 47.186666, 47.487638
8296, 7.931669, 47.101521, 47.851838
8297, 8.419277, 46.801572, 48.053909
8298, 7.162683, 48.763583, 47.791964
8299, 6.657100, 48.849494, 47.437164
8300, 6.711116, 48.260797, 47.375820
8301, 7.561311, 48.428336, 48.032683
8302, 7.053956, 49.601923, 47.788566
8303, 6.569331, 49.595669, 47.447975
8304, 7.306567, 46.378265, 47.061140
8305, 7.589097, 46.630314, 47.367226
8306, 14.923013, 43.672093, 46.463588
8307, 16.536223, 43.782282, 46.260573
8308, 14.982801, 44.170780, 47.818405
8309, 16.560620, 44.164854, 47.704461
8310, 13.711420, 44.559335, 49.310940
8311, 15.135240, 44.445490, 49.262821
8312, 11.762255, 44.775922, 48.476484
8313, 12.192296, 44.688298, 48.614985
8314, 11.467780, 45.102362, 49.270141
8315, 11.773468, 44.931933, 49.022813
8316, 12.231050, 44.755902, 48.986798
8317, 11.503882, 45.146672, 49.719324
8318, 11.986982, 44.973216, 49.627771
8319, 12.644759, 44.754260, 49.394478
8320, 16.693442, 44.379225, 49.193077
8321, 13.728615, 44.568777, 50.716007
8322, 15.142637, 44.416661, 50.744820
8323, 16.707595, 44.368892, 50.802815
8324, 27.383175, 49.493425, 41.613450
8325, 27.355731, 50.354120, 41.554247
8326, 28.005950, 48.923746, 42.156122
8327, 27.965127, 50.850622, 42.018560
8328, 27.583411, 47.680656, 42.606470
8329, 28.046138, 46.920444, 43.646376
8330, 28.545929, 48.029252, 42.892509
8331, 29.159621, 49.439258, 42.635344
8332, 29.155158, 50.859936, 42.663025
8333, 29.473356, 48.424225, 43.100968
8334, 29.753615, 51.482892, 43.155582
8335, 29.936524, 49.659347, 42.888556
8336, 29.941576, 50.478130, 42.916686
8337, 30.676767, 49.082555, 43.231588
8338, 30.731076, 50.985697, 43.236680
8339, 27.426703, 46.054574, 44.485463
8340, 27.846109, 45.610575, 45.686725
8341, 28.464045, 46.270010, 44.762444
8342, 27.715714, 45.038036, 47.354487
8343, 29.340615, 45.741846, 46.095461
8344, 29.542064, 46.452113, 44.932135
8345, 29.216932, 45.216247, 47.551239
8346, 30.735583, 45.885684, 46.290882
8347, 30.843503, 46.633218, 45.100026
8348, 30.703897, 45.354477, 47.651427
8349, 32.076048, 46.018011, 46.395646
8350, 32.232371, 46.743332, 45.271148
8351, 32.177911, 45.506725, 47.654282
8352, 29.491409, 47.312460, 43.871867
8353, 30.838097, 47.632301, 44.016489
8354, 32.267574, 47.784876, 44.197581
8355, 32.278601, 49.178165, 43.544040
8356, 32.302401, 50.853546, 43.557758
8357, 27.443829, 44.750679, 49.006447
8358, 29.110782, 44.914615, 49.141017
8359, 26.485649, 44.597318, 49.494050
8360, 26.477430, 44.588728, 50.431479
8361, 27.420376, 44.726778, 50.933018
8362, 29.107770, 44.897885, 50.826205
8363, 30.674265, 45.045685, 49.185278
8364, 32.207792, 45.172236, 49.180289
8365, 30.683094, 45.017170, 50.791985
8366, 32.212551, 45.182263, 50.776742
8367, 33.145142, 46.123891, 46.458631
8368, 33.723789, 46.737998, 45.530180
8369, 33.709873, 45.740263, 47.478260
8370, 34.312016, 46.214417, 46.471053
8371, 33.664581, 47.835658, 44.377812
8372, 33.804317, 49.147726, 43.746481
8373, 34.804917, 47.939357, 44.451094
8374, 35.386177, 48.988021, 43.976308
8375, 35.375673, 47.162762, 45.216507
8376, 35.964389, 48.027556, 44.512088
8377, 33.813005, 50.807224, 43.770654
8378, 35.388133, 50.962597, 43.989536
8379, 35.952995, 51.925455, 44.512053
8380, 35.498567, 46.295275, 46.438715
8381, 37.002349, 49.278549, 44.038850
8382, 36.991217, 50.722141, 44.082372
8383, 37.109073, 48.086930, 44.576015
8384, 37.093424, 51.897628, 44.584165
8385, 38.506936, 49.354218, 44.151295
8386, 38.501577, 50.669100, 44.189421
8387, 38.525679, 48.134040, 44.663195
8388, 38.507655, 51.871768, 44.694236
8389, 36.980806, 47.124694, 45.405892
8390, 36.949702, 46.321542, 46.522234
8391, 38.481611, 47.143161, 45.509430
8392, 38.442245, 46.346183, 46.592980
8393, 33.745295, 45.354134, 49.158650
8394, 35.350820, 45.746702, 47.717231
8395, 35.320241, 45.415704, 49.204512
8396, 33.756007, 45.317386, 50.797813
8397, 35.325477, 45.406398, 50.748253
8398, 36.884800, 45.768969, 47.817717
8399, 36.860748, 45.454698, 49.235856
8400, 38.408634, 45.789397, 47.872022
8401, 38.393868, 45.485148, 49.255982
8402, 36.866772, 45.450141, 50.710146
8403, 38.397756, 45.484765, 50.689964
8404, 39.978842, 49.386254, 44.241547
8405, 39.970267, 50.634905, 44.327633
8406, 39.983502, 48.185640, 44.748129
8407, 39.966369, 51.800061, 44.804539
8408, 41.426696, 49.389454, 44.338056
8409, 41.416311, 50.594820, 44.391565
8410, 41.447415, 48.230724, 44.776700
8411, 41.434117, 51.733497, 44.849566
8412, 39.971398, 47.179047, 45.576253
8413, 39.947772, 46.376641, 46.641924
8414, 41.461799, 47.224316, 45.609281
8415, 41.462295, 46.418618, 46.671969
8416, 42.822753, 49.390529, 44.363600
8417, 42.812358, 50.534296, 44.375388
8418, 42.899510, 48.297090, 44.781456
8419, 42.880721, 51.643345, 44.803147
8420, 44.122287, 49.465351, 44.409664
8421, 44.096231, 50.463685, 44.431100
8422, 44.366369, 48.476759, 44.743028
8423, 44.333433, 51.459391, 44.741179
8424, 42.952149, 47.270248, 45.586342
8425, 42.979022, 46.470078, 46.675238
8426, 44.460083, 47.384303, 45.514609
8427, 44.509044, 46.495072, 46.615959
8428, 39.931299, 45.804261, 47.901190
8429, 39.924430, 45.510892, 49.268945
8430, 41.461065, 45.834164, 47.913222
8431, 41.457212, 45.528324, 49.277375
8432, 39.926491, 45.517832, 50.682546
8433, 41.463342, 45.544344, 50.681703
8434, 42.989111, 45.889779, 47.928522
8435, 42.996237, 45.595401, 49.288982
8436, 44.531627, 45.886046, 47.892505
8437, 44.537000, 45.580410, 49.280413
8438, 43.003212, 45.580618, 50.685213
8439, 44.547249, 45.600309, 50.696160
8440, 45.065852, 49.573721, 44.441452
8441, 45.056271, 50.315257, 44.441854
8442, 45.825610, 48.940412, 44.562638
8443, 45.784892, 50.903364, 44.557147
8444, 46.002029, 47.554238, 45.432388
8445, 46.068252, 46.557153, 46.552445
8446, 47.660365, 47.584226, 45.388294
8447, 47.669723, 49.052240, 44.611317
8448, 47.658623, 46.595453, 46.541771
8449, 47.670689, 50.867403, 44.564667
8450, 50.297358, 49.634160, 44.424732
8451, 51.236724, 49.512257, 44.399981
8452, 51.225781, 50.479686, 44.416363
8453, 50.287506, 50.340977, 44.430838
8454, 49.544146, 49.043078, 44.592066
8455, 51.003336, 48.545912, 44.698090
8456, 51.000158, 51.448278, 44.739057
8457, 49.515550, 50.946817, 44.593787
8458, 49.330923, 47.571868, 45.407577
8459, 49.263413, 46.568240, 46.538023
8460, 50.890493, 47.416880, 45.498929
8461, 50.831190, 46.550172, 46.616619
8462, 46.084527, 45.911316, 47.865876
8463, 46.090373, 45.594772, 49.267187
8464, 47.655189, 45.929796, 47.853245
8465, 47.655060, 45.587854, 49.257863
8466, 46.091507, 45.593051, 50.694226
8467, 47.647077, 45.575354, 50.706069
8468, 49.231744, 45.921830, 47.860926
8469, 49.217345, 45.594234, 49.268339
8470, 50.801666, 45.942234, 47.902687
8471, 50.782756, 45.589442, 49.282200
8472, 49.206681, 45.575612, 50.715060
8473, 50.772648, 45.569871, 50.733928
8474, 52.571431, 49.444068, 44.385832
8475, 52.566426, 50.554584, 44.421180
8476, 52.491001, 48.344661, 44.752374
8477, 52.486343, 51.636642, 44.819712
8478, 54.012803, 49.405943, 44.382053
8479, 54.006544, 50.589280, 44.399313
8480, 53.976836, 48.258192, 44.791515
8481, 53.974442, 51.731483, 44.816574
8482, 52.425276, 47.313119, 45.580479
8483, 52.380903, 46.491079, 46.667687
8484, 53.951008, 47.244005, 45.628270
8485, 53.926511, 46.443703, 46.707218
8486, 55.504508, 49.381280, 44.372622
8487, 55.496675, 50.602206, 44.374216
8488, 55.496295, 48.209957, 44.811091
8489, 55.487380, 51.773540, 44.804084
8490, 57.016718, 49.369567, 44.376507
8491, 57.015090, 50.610171, 44.368350
8492, 57.017562, 48.194211, 44.850758
8493, 57.011993, 51.794166, 44.804163
8494, 55.482620, 47.212060, 45.665158
8495, 55.471659, 46.427077, 46.742961
8496, 57.013721, 47.194255, 45.677177
8497, 57.007471, 46.412306, 46.758886
8498, 52.354391, 45.903969, 47.927937
8499, 52.341124, 45.601318, 49.312498
8500, 53.907734, 45.862918, 47.960605
8501, 53.894858, 45.578728, 49.330328
8502, 52.330811, 45.593290, 50.738052
8503, 53.889495, 45.576758, 50.742476
8504, 55.462552, 45.859938, 47.979661
8505, 55.451385, 45.557701, 49.334388
8506, 57.008545, 45.862086, 47.993127
8507, 57.006118, 45.549684, 49.336327
8508, 55.447031, 45.567619, 50.744131
8509, 57.002918, 45.551597, 50.734509
8510, 58.522057, 49.353523, 44.329979
8511, 58.529846, 50.620633, 44.351674
8512, 58.527436, 48.151495, 44.823032
8513, 58.530402, 51.811714, 44.804621
8514, 60.030515, 49.330378, 44.273315
8515, 60.025100, 50.650827, 44.297480
8516, 60.027136, 48.140114, 44.778838
8517, 60.034209, 51.832693, 44.786781
8518, 58.535366, 47.170914, 45.671538
8519, 58.539260, 46.391546, 46.746987
8520, 60.041856, 47.133169, 45.613876
8521, 60.058737, 46.353856, 46.711198
8522, 61.532628, 49.336407, 44.215925
8523, 61.526441, 50.700272, 44.221310
8524, 61.514241, 48.128616, 44.706032
8525, 61.511491, 51.868971, 44.735863
8526, 63.065818, 49.302425, 44.123059
8527, 63.043492, 50.783225, 44.128094
8528, 62.944458, 48.100749, 44.610539
8529, 62.939582, 51.911620, 44.657809
8530, 61.540415, 47.118441, 45.560316
8531, 61.565429, 46.337720, 46.664334
8532, 63.041572, 47.124416, 45.455908
8533, 63.057068, 46.301079, 46.574962
8534, 58.545251, 45.828374, 47.976627
8535, 58.541156, 45.536910, 49.335017
8536, 60.072546, 45.805224, 47.957782
8537, 60.072706, 45.504119, 49.313255
8538, 58.539838, 45.543526, 50.725647
8539, 60.076352, 45.514247, 50.716588
8540, 61.596087, 45.766054, 47.920078
8541, 61.613824, 45.450856, 49.299858
8542, 63.116444, 45.706667, 47.853968
8543, 63.142133, 45.395298, 49.274603
8544, 61.604650, 45.440083, 50.725298
8545, 63.138393, 45.361939, 50.751777
8546, 71.163489, 48.052216, 42.907092
8547, 72.131942, 47.696287, 42.585037
8548, 72.136884, 49.044309, 41.901438
8549, 70.840531, 49.136718, 42.572271
8550, 70.575060, 47.397661, 43.667911
8551, 71.985426, 46.649558, 43.768535
8552, 70.199831, 48.491806, 43.068840
8553, 70.025900, 49.551995, 42.844078
8554, 70.862215, 50.809719, 42.617094
8555, 70.030415, 50.441376, 42.851024
8556, 69.245133, 49.032940, 43.231109
8557, 70.242922, 51.504238, 43.152298
8558, 69.258341, 50.964496, 43.277816
8559, 72.154175, 50.910574, 41.962960
8560, 72.819477, 49.552070, 41.327673
8561, 72.816111, 50.430186, 41.358547
8562, 66.871785, 46.095275, 46.441937
8563, 67.934423, 46.007995, 46.394622
8564, 67.781533, 46.748275, 45.268040
8565, 66.295299, 46.730322, 45.535372
8566, 66.295092, 45.687321, 47.479785
8567, 67.824912, 45.490172, 47.663632
8568, 65.692947, 46.174066, 46.474820
8569, 69.257703, 45.887417, 46.296021
8570, 69.167071, 46.648232, 45.084896
8571, 69.264277, 45.345304, 47.668883
8572, 65.215319, 47.983558, 44.488182
8573, 66.356411, 47.871402, 44.433720
8574, 66.208113, 49.220564, 43.822870
8575, 64.633486, 49.069558, 44.021127
8576, 64.635838, 47.172081, 45.246450
8577, 64.056403, 48.058334, 44.546227
8578, 64.638773, 51.012513, 44.071935
8579, 64.072975, 51.949170, 44.585134
8580, 66.207773, 50.820790, 43.841901
8581, 64.507508, 46.265993, 46.464781
8582, 67.745618, 47.808762, 44.239090
8583, 67.699472, 49.205312, 43.579023
8584, 69.163216, 47.651064, 43.979459
8585, 67.707593, 50.867431, 43.631256
8586, 64.656995, 45.684422, 47.736912
8587, 64.689762, 45.338472, 49.228651
8588, 66.265050, 45.268472, 49.177865
8589, 64.693926, 45.326803, 50.776982
8590, 66.266112, 45.285832, 50.819003
8591, 67.797929, 45.177282, 49.201833
8592, 69.275647, 45.048995, 49.203326
8593, 67.800240, 45.176219, 50.788754
8594, 69.274912, 45.058588, 50.779050
8595, 70.651580, 45.733246, 46.119247
8596, 70.478240, 46.457882, 44.905805
8597, 70.705110, 45.206650, 47.600107
8598, 72.158355, 45.559829, 45.762886
8599, 71.555460, 46.186663, 44.835754
8600, 72.188605, 45.017446, 47.477463
8601, 72.630397, 45.919460, 44.588622
8602, 70.729877, 44.903040, 49.183276
8603, 72.178209, 44.766549, 49.153757
8604, 70.726196, 44.926615, 50.802617
8605, 72.183827, 44.786740, 50.837974
8606, 83.514875, 43.803747, 46.377971
8607, 85.134873, 43.746555, 46.543528
8608, 83.514342, 44.199384, 47.810182
8609, 85.232434, 44.294758, 47.991336
8610, 85.858518, 44.535436, 48.668450
8611, 86.709582, 43.720856, 46.573979
8612, 88.413518, 43.891842, 46.641718
8613, 86.716100, 44.281374, 47.547511
8614, 86.570908, 44.678185, 48.634592
8615, 83.308101, 44.412910, 49.236497
8616, 84.749211, 44.486678, 49.331389
8617, 85.709015, 44.631423, 49.480713
8618, 83.297447, 44.418643, 50.777694
8619, 84.735390, 44.483783, 50.652119
8620, 85.685274, 44.647955, 50.484398
8621, 87.778158, 44.981907, 48.543480
8622, 87.812517, 44.826986, 48.181642
8623, 87.416830, 44.649959, 48.027522
8624, 87.190567, 44.778537, 48.521399
8625, 88.305202, 45.104515, 48.498159
8626, 88.231546, 44.870357, 48.065151
8627, 88.161897, 44.580743, 47.623865
8628, 87.798692, 45.147144, 48.999289
8629, 88.271807, 45.314279, 49.035053
8630, 86.545489, 44.822939, 49.487561
8631, 87.378765, 45.060128, 49.467728
8632, 88.117766, 45.322043, 49.648309
8633, 87.762615, 44.273186, 47.312548
8634, 88.516626, 44.294974, 47.160426
8635, 86.487728, 44.806014, 50.515772
8636, 89.887111, 44.025920, 46.512374
8637, 91.431800, 44.383828, 46.316739
8638, 92.072943, 45.306017, 46.737977
8639, 90.732164, 45.994233, 47.977011
8640, 88.968425, 44.437446, 47.246432
8641, 89.206740, 45.113458, 47.947213
8642, 88.898168, 44.775678, 47.664219
8643, 89.554379, 44.578149, 47.170557
8644, 89.705680, 45.244884, 47.878646
8645, 89.553635, 44.902037, 47.525151
8646, 90.669698, 45.163661, 47.279441
8647, 90.244028, 44.703030, 47.060043
8648, 90.417429, 45.493273, 47.685948
8649, 90.077765, 45.008042, 47.448865
8650, 88.912491, 44.188182, 46.937124
8651, 89.459359, 44.260954, 46.867165
8652, 93.877014, 45.123417, 45.512576
8653, 92.616410, 44.572036, 45.926151
8654, 93.142760, 45.722572, 46.394005
8655, 94.197661, 45.800470, 45.681206
8656, 94.005183, 46.763143, 46.309856
8657, 93.983774, 46.206216, 46.074224
8658, 92.285051, 45.826023, 46.923693
8659, 93.005582, 46.964676, 47.073218
8660, 92.734544, 46.158464, 46.864575
8661, 93.593399, 46.914930, 46.688628
8662, 91.970065, 47.079967, 47.759142
8663, 91.495057, 46.807501, 47.995637
8664, 91.853846, 46.358175, 47.473394
8665, 91.252984, 46.288039, 47.790034
8666, 92.558412, 47.108008, 47.407347
8667, 92.374806, 46.574707, 47.289111
8668, 91.339527, 45.304858, 47.083843
8669, 91.714008, 45.708322, 47.178261
8670, 91.152743, 45.741410, 47.517423
8671, 91.578053, 45.923853, 47.380861
8672, 91.006582, 44.794338, 46.824359
8673, 95.386470, 47.316444, 45.377567
8674, 94.817729, 45.362060, 44.863934
8675, 95.424167, 46.106657, 44.756786
8676, 95.215023, 46.643679, 45.224260
8677, 94.707220, 46.083950, 45.421816
8678, 96.243816, 47.189457, 44.475738
8679, 95.804115, 47.338550, 44.978656
8680, 95.876697, 46.597732, 44.571078
8681, 95.637084, 46.858241, 44.931279
8682, 94.966075, 47.345583, 45.761206
8683, 94.446025, 47.200177, 46.164384
8684, 94.904939, 46.855788, 45.611603
8685, 94.516731, 46.585843, 45.827575
8686, 95.539152, 45.228422, 44.015984
8687, 95.718498, 45.856263, 44.293665
8688, 96.488022, 46.863207, 44.049078
8689, 96.149740, 46.257045, 44.068880
8690, 97.044910, 47.089444, 43.508659
8691, 96.462871, 45.700543, 43.338454
8692, 97.360248, 49.520907, 43.879670
8693, 97.197206, 48.791192, 43.959067
8694, 97.126819, 48.030295, 43.819442
8695, 97.714510, 47.989037, 43.035236
8696, 97.859563, 49.252873, 43.160081
8697, 97.522656, 48.740675, 43.539151
8698, 97.459820, 48.231749, 43.475857
8699, 6.311404, 52.880180, 46.721161
8700, 5.629090, 52.022413, 46.510965
8701, 5.959052, 51.772605, 46.822767
8702, 5.879462, 51.271627, 46.850993
8703, 6.407359, 51.992301, 47.066461
8704, 6.241289, 51.218495, 47.115924
8705, 7.930573, 54.748179, 46.683698
8706, 6.931078, 53.994690, 46.578348
8707, 7.185232, 51.227447, 47.769576
8708, 6.675385, 51.157301, 47.424117
8709, 6.586872, 50.413416, 47.431217
8710, 7.056220, 50.396350, 47.789074
8711, 7.582610, 51.553514, 48.019854
8712, 6.837759, 52.318014, 47.272444
8713, 7.167295, 52.040991, 47.573649
8714, 6.750667, 51.730316, 47.352315
8715, 7.693750, 52.117351, 47.924872
8716, 6.975077, 52.897239, 47.137275
8717, 7.954838, 52.870620, 47.844973
8718, 7.419120, 52.792490, 47.493295
8719, 8.427972, 53.168506, 48.054433
8720, 10.123844, 55.988515, 46.595250
8721, 8.818303, 55.590125, 46.436567
8722, 8.632696, 54.730001, 47.113581
8723, 8.307066, 54.285025, 47.234600
8724, 7.887826, 54.112835, 47.111601
8725, 8.798640, 54.267865, 47.567864
8726, 8.396135, 54.068361, 47.453679
8727, 8.100597, 53.626757, 47.543302
8728, 8.686603, 53.717994, 47.888367
8729, 7.339511, 53.595084, 47.066992
8730, 7.617436, 53.339368, 47.365096
8731, 11.634910, 56.237158, 46.685737
8732, 13.273942, 56.305588, 46.607106
8733, 9.292435, 54.862604, 47.354748
8734, 10.059541, 54.745965, 48.005840
8735, 9.489792, 54.538780, 47.800595
8736, 9.193651, 54.023390, 48.064974
8737, 10.400729, 55.453596, 47.322332
8738, 9.743524, 55.326436, 47.171933
8739, 10.420972, 55.110624, 47.776810
8740, 9.873713, 55.009744, 47.597972
8741, 10.868768, 55.608083, 47.383804
8742, 11.152478, 55.423461, 47.797071
8743, 11.867587, 55.450694, 48.058400
8744, 11.084834, 55.837858, 47.094619
8745, 12.065656, 55.802419, 47.518737
8746, 11.456244, 55.719718, 47.427623
8747, 10.549154, 55.784533, 46.994281
8748, 9.063677, 55.217670, 46.909796
8749, 12.507574, 55.469743, 48.418016
8750, 13.292522, 55.705040, 47.923576
8751, 14.900152, 56.284098, 46.461174
8752, 16.519869, 56.223856, 46.269119
8753, 14.956037, 55.799633, 47.833036
8754, 16.539199, 55.824492, 47.708972
8755, 15.097867, 55.535368, 49.275878
8756, 13.672189, 55.425283, 49.331195
8757, 11.714791, 55.235033, 48.544263
8758, 12.138339, 55.294162, 48.658821
8759, 11.435703, 54.865571, 49.297079
8760, 11.745758, 55.062040, 49.039342
8761, 12.181011, 55.181839, 49.014114
8762, 11.514065, 54.796185, 49.733325
8763, 11.986185, 55.018814, 49.640552
8764, 12.600694, 55.224221, 49.414956
8765, 16.663132, 55.618678, 49.202918
8766, 15.099005, 55.508784, 50.767853
8767, 13.678234, 55.419820, 50.730728
8768, 16.665420, 55.592304, 50.816088
8769, 27.916247, 52.248384, 42.677545
8770, 27.992427, 53.288164, 43.826225
8771, 28.859433, 51.915912, 42.957631
8772, 29.395180, 52.551071, 43.737810
8773, 28.411380, 53.797275, 44.828032
8774, 29.487940, 53.540937, 44.930878
8775, 27.382877, 54.046311, 44.584230
8776, 27.822637, 54.434433, 45.733433
8777, 27.781756, 54.970567, 47.455422
8778, 29.308786, 54.239472, 46.116975
8779, 29.274823, 54.767284, 47.564736
8780, 30.821321, 52.350872, 44.016367
8781, 30.805545, 53.388527, 45.152123
8782, 32.284153, 52.233759, 44.262986
8783, 32.252037, 53.371530, 45.494931
8784, 32.799182, 53.890921, 46.464017
8785, 30.630834, 54.081647, 46.299581
8786, 30.712249, 54.575715, 47.604463
8787, 31.679171, 53.981571, 46.388955
8788, 32.210854, 54.374199, 47.442522
8789, 27.792390, 55.209029, 49.133734
8790, 29.273586, 55.037928, 49.158788
8791, 27.796086, 55.239040, 50.820874
8792, 29.281391, 55.050044, 50.783436
8793, 30.735097, 54.910232, 49.166741
8794, 32.250211, 54.796178, 49.153509
8795, 30.748370, 54.906024, 50.764954
8796, 32.248928, 54.807356, 50.788213
8797, 33.691572, 52.075893, 44.379688
8798, 33.824688, 53.064359, 45.341537
8799, 34.812233, 51.986263, 44.449350
8800, 35.372224, 52.757897, 45.193692
8801, 33.959547, 53.789516, 46.480878
8802, 35.391212, 53.685896, 46.482116
8803, 36.958064, 52.852210, 45.426778
8804, 36.903279, 53.661481, 46.573844
8805, 38.456270, 52.847228, 45.546524
8806, 38.408412, 53.649612, 46.636235
8807, 33.827731, 54.350750, 47.722022
8808, 33.797682, 54.685305, 49.248230
8809, 35.348514, 54.282775, 47.815724
8810, 35.322700, 54.593091, 49.284820
8811, 33.783497, 54.684458, 50.859217
8812, 35.334728, 54.566136, 50.794211
8813, 36.870670, 54.248067, 47.872397
8814, 36.850198, 54.543390, 49.298576
8815, 38.384158, 54.225520, 47.911974
8816, 38.375221, 54.523576, 49.298064
8817, 36.860505, 54.511070, 50.749027
8818, 38.383598, 54.498503, 50.723602
8819, 39.949393, 52.807076, 45.612164
8820, 39.930832, 53.612305, 46.685882
8821, 41.446897, 52.739745, 45.650627
8822, 41.447031, 53.560207, 46.700866
8823, 42.940415, 52.687330, 45.600628
8824, 42.971870, 53.526898, 46.672783
8825, 44.438785, 52.586077, 45.518533
8826, 44.503652, 53.496549, 46.616554
8827, 39.917271, 54.195418, 47.930484
8828, 39.910640, 54.508104, 49.290356
8829, 41.448607, 54.159875, 47.930648
8830, 41.449543, 54.445954, 49.298523
8831, 39.915596, 54.462912, 50.695428
8832, 41.452391, 54.433371, 50.682437
8833, 42.987566, 54.137845, 47.915950
8834, 42.993262, 54.425543, 49.290772
8835, 44.533877, 54.127488, 47.892986
8836, 44.545070, 54.450358, 49.282960
8837, 42.992549, 54.416694, 50.678810
8838, 44.540618, 54.414203, 50.682549
8839, 45.983515, 52.414039, 45.399286
8840, 46.061585, 53.429217, 46.555580
8841, 47.656393, 52.365267, 45.352079
8842, 47.663369, 53.398334, 46.536244
8843, 49.324832, 52.401526, 45.411703
8844, 49.267098, 53.425630, 46.555176
8845, 50.888386, 52.566452, 45.522951
8846, 50.830691, 53.450253, 46.630967
8847, 46.095816, 54.086020, 47.875201
8848, 46.103868, 54.410165, 49.278920
8849, 47.665699, 54.065365, 47.864870
8850, 47.658406, 54.421644, 49.281458
8851, 46.093088, 54.394906, 50.691709
8852, 47.649951, 54.406885, 50.714011
8853, 49.238559, 54.071764, 47.881599
8854, 49.225245, 54.423451, 49.283004
8855, 50.806409, 54.071054, 47.917536
8856, 50.791744, 54.387310, 49.305007
8857, 49.215706, 54.407180, 50.731709
8858, 50.781095, 54.389462, 50.742134
8859, 52.418667, 52.668542, 45.589944
8860, 52.377453, 53.487629, 46.684187
8861, 53.943173, 52.738528, 45.632879
8862, 53.917886, 53.536586, 46.702844
8863, 55.474189, 52.784062, 45.637695
8864, 55.463047, 53.591695, 46.695637
8865, 57.009499, 52.798674, 45.648503
8866, 57.010781, 53.585141, 46.719968
8867, 52.355499, 54.062798, 47.945372
8868, 52.345977, 54.384393, 49.313741
8869, 53.902626, 54.116068, 47.938503
8870, 53.902388, 54.385549, 49.319660
8871, 52.344738, 54.376312, 50.752876
8872, 53.902566, 54.367367, 50.749127
8873, 55.460229, 54.138389, 47.951989
8874, 55.458819, 54.410766, 49.316183
8875, 57.016091, 54.142012, 47.961227
8876, 57.015570, 54.401765, 49.313363
8877, 55.462945, 54.381333, 50.739560
8878, 57.013802, 54.391824, 50.717840
8879, 58.537583, 52.799405, 45.658888
8880, 58.549665, 53.562492, 46.735593
8881, 60.052612, 52.822277, 45.620268
8882, 60.072749, 53.592568, 46.713680
8883, 61.558111, 52.850360, 45.561982
8884, 61.596033, 53.629361, 46.666155
8885, 63.067201, 52.857924, 45.458974
8886, 63.110511, 53.671929, 46.592069
8887, 58.556209, 54.113503, 47.968835
8888, 58.558642, 54.419000, 49.307498
8889, 60.086129, 54.143823, 47.957800
8890, 60.093498, 54.444923, 49.314889
8891, 58.558591, 54.417070, 50.710968
8892, 60.090988, 54.430657, 50.710258
8893, 61.612294, 54.178052, 47.934193
8894, 61.619851, 54.490596, 49.311247
8895, 63.136540, 54.226914, 47.890903
8896, 63.147198, 54.539491, 49.293479
8897, 61.617478, 54.477433, 50.723779
8898, 63.142994, 54.534286, 50.750840
8899, 72.161985, 52.255131, 42.680690
8900, 71.189887, 51.907763, 42.959385
8901, 72.063950, 53.323742, 43.849269
8902, 70.638250, 52.555216, 43.768445
8903, 66.339128, 52.091450, 44.457076
8904, 65.221683, 52.017137, 44.521791
8905, 66.213906, 53.064988, 45.391731
8906, 64.661894, 52.785257, 45.234384
8907, 64.621236, 53.716114, 46.487932
8908, 66.055632, 53.818827, 46.489363
8909, 67.740648, 52.238287, 44.353131
8910, 67.785570, 53.378360, 45.541767
8911, 69.197876, 52.364807, 44.066521
8912, 69.221295, 53.407829, 45.176428
8913, 67.211184, 53.912746, 46.467868
8914, 69.397911, 54.129509, 46.302043
8915, 68.366346, 54.016476, 46.406912
8916, 69.313790, 54.619358, 47.608526
8917, 67.814867, 54.403576, 47.449508
8918, 64.656449, 54.290752, 47.830160
8919, 64.675461, 54.603846, 49.280679
8920, 66.182449, 54.373470, 47.736154
8921, 66.216421, 54.687946, 49.248331
8922, 64.672015, 54.598268, 50.798091
8923, 66.232751, 54.684736, 50.845765
8924, 67.767329, 54.802148, 49.157991
8925, 69.277469, 54.938618, 49.165193
8926, 67.771878, 54.799991, 50.784304
8927, 69.272587, 54.936946, 50.772873
8928, 70.526288, 53.561414, 44.937100
8929, 71.592877, 53.799652, 44.837001
8930, 70.705042, 54.264907, 46.119850
8931, 70.750458, 54.795293, 47.569538
8932, 72.176884, 54.386959, 45.760658
8933, 72.233882, 54.959033, 47.458782
8934, 72.629908, 54.029151, 44.596681
8935, 70.752762, 55.076291, 49.159080
8936, 72.223318, 55.234370, 49.132148
8937, 70.749146, 55.075837, 50.786266
8938, 72.221284, 55.217611, 50.820162
8939, 83.531657, 56.147434, 46.332055
8940, 85.143155, 56.272007, 46.467625
8941, 83.548877, 55.749092, 47.784425
8942, 86.650291, 56.341868, 46.472792
8943, 88.400953, 56.227001, 46.542732
8944, 85.661169, 55.691734, 47.934614
8945, 84.967144, 55.662968, 48.043445
8946, 86.364967, 55.661428, 47.835627
8947, 87.120375, 55.644282, 47.709251
8948, 85.640288, 56.090188, 46.912286
8949, 85.593118, 55.886845, 47.382308
8950, 84.811429, 55.885701, 47.413658
8951, 86.186086, 56.113470, 46.892871
8952, 86.271874, 55.902843, 47.306517
8953, 86.947507, 55.959892, 47.126613
8954, 84.296228, 55.626058, 48.349593
8955, 83.124470, 55.567622, 49.239251
8956, 84.648152, 55.565678, 48.580407
8957, 85.107047, 55.555384, 48.524330
8958, 84.632588, 55.494640, 48.957465
8959, 85.115940, 55.436310, 49.027088
8960, 84.245149, 55.481668, 49.357216
8961, 85.018169, 55.399266, 49.613059
8962, 83.127863, 55.572563, 50.770872
8963, 89.812812, 56.073173, 46.398579
8964, 90.701403, 53.996255, 47.962306
8965, 92.575225, 55.384109, 45.830232
8966, 92.045055, 54.752756, 46.612566
8967, 91.160743, 55.669663, 46.301638
8968, 89.177657, 54.899860, 47.955332
8969, 89.673768, 54.780544, 47.881142
8970, 90.641166, 54.891627, 47.262837
8971, 90.406978, 54.532749, 47.675793
8972, 88.889934, 55.660821, 47.160115
8973, 88.429553, 55.812840, 47.063669
8974, 88.823630, 55.282203, 47.626044
8975, 88.006392, 55.562477, 47.520778
8976, 89.513631, 55.514470, 47.097555
8977, 89.513908, 55.163789, 47.504664
8978, 90.194097, 55.366876, 47.009162
8979, 90.033510, 55.028072, 47.407276
8980, 88.847215, 55.936990, 46.812654
8981, 89.457625, 55.863227, 46.729069
8982, 87.756018, 55.949801, 47.061071
8983, 94.086206, 54.152493, 45.724431
8984, 93.643699, 54.904730, 45.597914
8985, 93.941084, 53.663148, 46.074813
8986, 93.972062, 53.125798, 46.296591
8987, 92.312974, 54.120508, 46.904372
8988, 92.747851, 53.738958, 46.850282
8989, 93.003371, 52.974632, 47.084808
8990, 93.169935, 54.085376, 46.380023
8991, 93.581936, 52.968422, 46.679476
8992, 91.859837, 53.644021, 47.470997
8993, 91.331479, 53.685985, 47.763359
8994, 92.011596, 52.950024, 47.745009
8995, 91.586993, 53.148209, 47.934620
8996, 92.375984, 53.383727, 47.303486
8997, 92.562417, 52.872865, 47.430333
8998, 91.732977, 54.310813, 47.133136
8999, 91.322198, 54.733127, 47.028164
9000, 91.572792, 54.079665, 47.377667
9001, 91.141002, 54.273938, 47.496215
9002, 90.900504, 55.275712, 46.804250
9003, 97.352647, 50.512169, 43.862938
9004, 97.036140, 52.929040, 43.467003
9005, 97.130487, 51.992599, 43.791652
9006, 97.193682, 51.238995, 43.933968
9007, 97.846923, 50.777445, 43.136528
9008, 97.689640, 52.024251, 42.989985
9009, 97.445317, 51.789092, 43.437485
9010, 97.506332, 51.279562, 43.502015
9011, 95.198423, 53.341805, 45.236543
9012, 94.654592, 53.886608, 45.446408
9013, 94.791398, 54.661544, 44.917178
9014, 95.410443, 53.907546, 44.770882
9015, 95.380266, 52.654420, 45.377176
9016, 95.640120, 53.144362, 44.934177
9017, 95.872431, 53.417457, 44.561224
9018, 95.822129, 52.662346, 44.973158
9019, 96.257709, 52.832286, 44.452614
9020, 94.875976, 53.104630, 45.615689
9021, 94.478875, 53.353285, 45.830873
9022, 94.940869, 52.616568, 45.764214
9023, 94.408288, 52.743161, 46.141463
9024, 95.543426, 54.818844, 44.051127
9025, 95.708228, 54.167724, 44.299509
9026, 96.157822, 53.775204, 44.064301
9027, 96.494453, 53.155140, 44.025446
9028, 96.449012, 54.317148, 43.320486
9029, 5.827627, 48.733253, 53.133574
9030, 5.422273, 49.214261, 53.360991
9031, 5.588527, 47.970605, 53.491776
9032, 5.912853, 48.222650, 53.179629
9033, 6.193778, 48.785347, 52.862598
9034, 5.997400, 49.527745, 52.896588
9035, 6.268325, 47.104430, 53.289743
9036, 6.359565, 48.001342, 52.917156
9037, 5.989019, 50.505609, 52.890246
9038, 5.399470, 50.811860, 53.357159
9039, 8.346689, 45.830385, 52.593468
9040, 8.821733, 45.556794, 52.483408
9041, 8.651622, 46.199660, 52.119062
9042, 8.062694, 46.323379, 52.474913
9043, 8.203200, 45.658747, 52.791080
9044, 8.457809, 45.286235, 52.927585
9045, 7.844531, 45.215828, 53.345339
9046, 7.833127, 45.874321, 52.897723
9047, 8.785475, 44.315898, 53.597232
9048, 10.157725, 43.776055, 53.659490
9049, 6.877417, 45.978015, 53.444648
9050, 11.661430, 43.594231, 53.560064
9051, 11.571265, 44.119624, 52.807395
9052, 12.145136, 44.148637, 52.647099
9053, 11.924423, 44.500847, 52.042585
9054, 11.207884, 44.485407, 52.363864
9055, 11.228045, 43.843733, 53.294305
9056, 10.941139, 44.203033, 52.854869
9057, 9.705737, 44.895784, 52.514053
9058, 10.375551, 44.754109, 52.305504
9059, 10.017776, 45.173064, 51.972986
9060, 9.467033, 45.415786, 52.117406
9061, 9.820622, 44.416830, 53.002888
9062, 10.396206, 44.311415, 52.877554
9063, 9.149143, 45.893814, 51.922838
9064, 10.460839, 43.931360, 53.386709
9065, 9.190466, 45.063057, 52.670682
9066, 9.050533, 44.745110, 53.021989
9067, 13.354672, 44.264686, 52.131887
9068, 12.578514, 44.593671, 51.643830
9069, 13.320079, 43.579149, 53.455661
9070, 7.377229, 47.182651, 52.499298
9071, 7.930805, 47.106637, 52.160514
9072, 7.639715, 47.860226, 52.040651
9073, 7.120350, 47.945132, 52.399718
9074, 6.924273, 47.079679, 52.849231
9075, 6.789807, 47.669479, 52.706767
9076, 8.384338, 46.775027, 51.929159
9077, 6.696772, 48.261185, 52.609763
9078, 7.142195, 48.766126, 52.180767
9079, 6.632401, 48.847157, 52.537756
9080, 7.531398, 48.427073, 51.932702
9081, 7.029255, 49.603861, 52.173414
9082, 6.536757, 49.597402, 52.510126
9083, 7.563477, 46.619481, 52.623651
9084, 7.289429, 46.378718, 52.938110
9085, 15.007726, 44.136141, 52.184761
9086, 11.995632, 44.986112, 50.389859
9087, 11.500840, 45.167246, 50.284356
9088, 11.442723, 45.148018, 50.733255
9089, 11.767175, 45.003349, 50.994929
9090, 12.673874, 44.786336, 50.641723
9091, 12.250818, 44.852576, 51.036650
9092, 11.769404, 44.807283, 51.541829
9093, 12.226986, 44.747371, 51.423404
9094, 16.584888, 44.122760, 52.291356
9095, 14.949350, 43.633441, 53.548056
9096, 16.560049, 43.741127, 53.737234
9097, 27.700582, 45.009003, 52.615924
9098, 29.221243, 45.188305, 52.426947
9099, 27.839622, 45.587989, 54.302784
9100, 28.480410, 46.269315, 55.243314
9101, 29.344381, 45.737291, 53.878952
9102, 29.549364, 46.460297, 55.035049
9103, 30.712526, 45.330074, 52.321534
9104, 32.194485, 45.479480, 52.310838
9105, 30.757998, 45.875920, 53.687945
9106, 30.851240, 46.643867, 54.854204
9107, 32.096703, 46.008759, 53.573076
9108, 32.245916, 46.750908, 54.679166
9109, 27.427806, 46.020388, 55.526790
9110, 28.043442, 46.901878, 56.355888
9111, 28.535295, 48.050262, 57.069202
9112, 29.489589, 47.328171, 56.066001
9113, 29.483784, 48.415871, 56.858983
9114, 29.787729, 51.525706, 56.836563
9115, 27.580100, 47.678396, 57.406756
9116, 27.982100, 48.945402, 57.808168
9117, 27.966623, 50.855644, 57.962059
9118, 29.177283, 49.442262, 57.350187
9119, 29.176503, 50.877599, 57.305321
9120, 30.844640, 47.642896, 55.913164
9121, 30.684111, 49.096252, 56.709799
9122, 32.279993, 47.805760, 55.728552
9123, 32.292872, 49.202358, 56.383539
9124, 30.730681, 50.978216, 56.698481
9125, 32.306434, 50.855699, 56.395050
9126, 29.953872, 49.675505, 57.068934
9127, 29.973742, 50.494335, 57.084856
9128, 33.732327, 45.718367, 52.490251
9129, 34.324968, 46.203133, 53.473462
9130, 35.362877, 45.740924, 52.228057
9131, 35.506626, 46.296361, 53.482902
9132, 33.177138, 46.108945, 53.516671
9133, 33.736718, 46.740017, 54.417564
9134, 36.898107, 45.764111, 52.117422
9135, 36.958951, 46.319706, 53.390582
9136, 38.415449, 45.790531, 52.062818
9137, 38.453462, 46.353006, 53.324281
9138, 35.391958, 47.171815, 54.717148
9139, 35.973399, 48.046781, 55.412169
9140, 35.965999, 51.938359, 55.357107
9141, 36.979391, 47.136844, 54.505182
9142, 37.102994, 48.094337, 55.330339
9143, 38.479384, 47.151422, 54.404042
9144, 38.524986, 48.127058, 55.265546
9145, 37.085662, 51.911915, 55.294266
9146, 38.514145, 51.878797, 55.224834
9147, 33.675189, 47.857446, 55.561351
9148, 33.816946, 49.192645, 56.170359
9149, 34.823243, 47.961669, 55.491607
9150, 35.411188, 49.028380, 55.948999
9151, 33.823786, 50.853985, 56.168869
9152, 35.410962, 51.003062, 55.919778
9153, 37.001505, 49.277600, 55.855902
9154, 36.989251, 50.788914, 55.856190
9155, 38.512681, 49.357426, 55.753181
9156, 38.507203, 50.707379, 55.753571
9157, 27.335967, 49.496674, 58.374773
9158, 27.360152, 50.367107, 58.429757
9159, 39.942062, 45.813566, 52.037066
9160, 39.959235, 46.377858, 53.288331
9161, 41.473329, 45.848520, 52.028434
9162, 41.485312, 46.406612, 53.278232
9163, 43.005681, 45.886893, 52.035740
9164, 43.007419, 46.459366, 53.280611
9165, 44.542401, 45.904561, 52.059697
9166, 44.528642, 46.501975, 53.301326
9167, 39.980343, 47.159501, 54.368959
9168, 40.006004, 48.173863, 55.211111
9169, 41.495309, 47.195797, 54.354275
9170, 41.495857, 48.217790, 55.166262
9171, 39.995573, 51.838315, 55.130405
9172, 41.474486, 51.796261, 55.065914
9173, 43.002477, 47.256709, 54.359905
9174, 42.974829, 48.273008, 55.156533
9175, 44.492560, 47.337695, 54.361660
9176, 44.435783, 48.359147, 55.140405
9177, 42.949453, 51.748544, 55.044921
9178, 44.415033, 51.665000, 55.066372
9179, 40.004087, 49.386862, 55.674497
9180, 40.004932, 50.691126, 55.645587
9181, 41.490246, 49.427149, 55.636904
9182, 41.476500, 50.660339, 55.544189
9183, 42.941137, 49.444468, 55.558828
9184, 42.927176, 50.635587, 55.502315
9185, 44.344740, 49.470511, 55.526353
9186, 44.332338, 50.590981, 55.473694
9187, 46.082404, 45.905216, 52.082425
9188, 46.053194, 46.530493, 53.362613
9189, 47.634395, 45.908648, 52.119706
9190, 47.597561, 46.558306, 53.448991
9191, 49.196652, 45.901431, 52.155076
9192, 49.170976, 46.595167, 53.486626
9193, 50.760923, 45.896063, 52.156593
9194, 50.745041, 46.613511, 53.502977
9195, 45.998669, 47.422043, 54.442472
9196, 45.916843, 48.505114, 55.221633
9197, 47.525974, 47.541815, 54.594237
9198, 47.389776, 49.009817, 55.401141
9199, 45.891446, 51.480186, 55.156547
9200, 47.305315, 50.990048, 55.390435
9201, 49.126153, 47.627322, 54.652285
9202, 49.077129, 49.112767, 55.411063
9203, 50.725980, 47.672408, 54.650193
9204, 50.705485, 49.097740, 55.424285
9205, 49.046143, 50.875537, 55.424292
9206, 50.700577, 50.828504, 55.406179
9207, 45.662253, 49.514246, 55.543931
9208, 45.641391, 50.510733, 55.497375
9209, 46.584562, 49.628436, 55.572640
9210, 46.529188, 50.386549, 55.543491
9211, 52.324650, 45.909860, 52.166587
9212, 52.325513, 46.608347, 53.498638
9213, 53.893518, 45.913687, 52.161791
9214, 53.901401, 46.603398, 53.479254
9215, 55.451368, 45.894647, 52.140013
9216, 55.470980, 46.557009, 53.460038
9217, 57.003549, 45.869254, 52.109365
9218, 57.007968, 46.480976, 53.409915
9219, 52.340222, 47.664068, 54.657077
9220, 52.360070, 49.099474, 55.430035
9221, 53.927090, 47.610972, 54.645251
9222, 53.980211, 49.110396, 55.414076
9223, 52.356809, 50.827071, 55.425836
9224, 53.989444, 50.833695, 55.450521
9225, 55.521262, 47.553731, 54.625166
9226, 55.687280, 49.045165, 55.415933
9227, 57.039814, 47.395631, 54.513881
9228, 57.108663, 48.529356, 55.280018
9229, 55.720927, 50.921749, 55.456220
9230, 57.161522, 51.499035, 55.279605
9231, 56.346554, 49.622511, 55.550913
9232, 57.322352, 49.518138, 55.582648
9233, 57.323776, 50.512689, 55.557039
9234, 56.439597, 50.354391, 55.572411
9235, 58.539380, 45.856409, 52.089927
9236, 58.535374, 46.427854, 53.362299
9237, 60.066825, 45.806732, 52.084183
9238, 60.052875, 46.365413, 53.352718
9239, 61.596865, 45.732969, 52.114034
9240, 61.562366, 46.306801, 53.382375
9241, 63.117151, 45.679130, 52.167920
9242, 63.063869, 46.254546, 53.455358
9243, 58.547248, 47.254965, 54.458645
9244, 58.582256, 48.296830, 55.264881
9245, 60.051483, 47.157486, 54.467587
9246, 60.055003, 48.193989, 55.283009
9247, 58.622398, 51.721054, 55.230584
9248, 60.075433, 51.822832, 55.238231
9249, 61.538867, 47.085964, 54.501064
9250, 61.505589, 48.126750, 55.328980
9251, 63.043733, 47.070136, 54.582730
9252, 62.926055, 48.067258, 55.414223
9253, 61.514539, 51.867548, 55.275317
9254, 62.919041, 51.923541, 55.338520
9255, 58.659082, 49.448272, 55.646622
9256, 58.661845, 50.602839, 55.619609
9257, 60.072382, 49.386410, 55.715426
9258, 60.079373, 50.634001, 55.697816
9259, 61.523675, 49.340213, 55.791169
9260, 61.525096, 50.663511, 55.792898
9261, 63.018918, 49.277582, 55.887949
9262, 63.018968, 50.771347, 55.880729
9263, 64.662167, 45.657009, 52.264488
9264, 64.525306, 46.244219, 53.524522
9265, 66.314097, 45.682814, 52.499193
9266, 65.723271, 46.170274, 53.489962
9267, 67.839388, 45.513913, 52.303863
9268, 69.296398, 45.372297, 52.300192
9269, 66.877151, 46.101631, 53.518346
9270, 67.948375, 46.033492, 53.563716
9271, 67.791129, 46.739684, 54.702286
9272, 66.307411, 46.725495, 54.431350
9273, 69.285987, 45.919983, 53.660220
9274, 69.188387, 46.641998, 54.885732
9275, 64.653692, 47.130705, 54.744381
9276, 64.052625, 48.024388, 55.475376
9277, 64.038935, 51.964247, 55.405579
9278, 65.221691, 47.913203, 55.503487
9279, 66.357827, 47.813568, 55.567972
9280, 66.193151, 49.170627, 56.192246
9281, 64.615500, 49.024023, 55.965806
9282, 64.607716, 51.004796, 55.940210
9283, 66.184070, 50.841708, 56.190943
9284, 67.747452, 47.784484, 55.766214
9285, 67.699004, 49.161358, 56.435372
9286, 69.179565, 47.645284, 55.992239
9287, 69.268431, 49.022755, 56.764960
9288, 67.689152, 50.838266, 56.443881
9289, 69.259566, 50.963572, 56.785120
9290, 70.717912, 45.224491, 52.378450
9291, 72.204459, 45.042042, 52.513100
9292, 70.662469, 45.751883, 53.847847
9293, 70.494666, 46.464135, 55.063417
9294, 72.164894, 45.577474, 54.222630
9295, 71.558385, 46.199460, 55.143164
9296, 72.635115, 45.926628, 55.378699
9297, 72.002517, 46.673977, 56.161520
9298, 70.593581, 47.421065, 56.271537
9299, 70.207135, 48.467365, 56.910430
9300, 70.220400, 51.493588, 56.908029
9301, 71.150787, 48.063282, 57.046219
9302, 72.103426, 47.716315, 57.327589
9303, 72.068989, 49.070025, 58.027804
9304, 70.827019, 49.148406, 57.409751
9305, 70.029644, 49.552091, 57.167590
9306, 70.843048, 50.818156, 57.407648
9307, 70.022433, 50.447165, 57.189668
9308, 72.076026, 50.894105, 58.026725
9309, 72.659065, 49.572526, 58.502926
9310, 72.645349, 50.430495, 58.512944
9311, 83.485548, 44.201286, 52.221609
9312, 85.187047, 44.280450, 51.988255
9313, 85.793363, 44.554611, 51.326140
9314, 83.475656, 43.771757, 53.686239
9315, 85.111555, 43.726557, 53.488433
9316, 87.760409, 45.057761, 51.038663
9317, 87.277695, 44.956176, 50.757872
9318, 88.194430, 45.243529, 50.973303
9319, 88.076560, 45.282245, 50.417565
9320, 87.750096, 44.788945, 51.664717
9321, 87.677903, 44.905177, 51.324219
9322, 88.421602, 45.081604, 51.464270
9323, 88.114936, 44.814816, 51.839186
9324, 87.987891, 44.973979, 51.371498
9325, 86.826736, 44.712504, 51.342179
9326, 87.149845, 44.577862, 51.818834
9327, 88.070222, 44.511340, 52.293851
9328, 86.463090, 44.638508, 51.345492
9329, 87.455609, 44.863844, 51.286064
9330, 86.677175, 43.661329, 53.436270
9331, 86.656189, 44.291141, 52.291312
9332, 88.482321, 44.215734, 52.849053
9333, 88.337714, 43.681634, 53.525358
9334, 87.672871, 44.209881, 52.658420
9335, 89.859913, 43.859276, 53.609323
9336, 88.859403, 44.697405, 52.304691
9337, 89.196861, 45.044108, 52.012970
9338, 88.819225, 44.303826, 52.832813
9339, 89.533497, 44.815809, 52.464060
9340, 89.704084, 45.186126, 52.076081
9341, 89.513136, 44.425130, 52.880347
9342, 90.065643, 44.946923, 52.553469
9343, 90.434024, 45.419852, 52.235882
9344, 90.231945, 44.604244, 52.955706
9345, 90.670233, 45.090435, 52.668273
9346, 90.762620, 45.932668, 51.926612
9347, 88.753962, 43.923013, 53.262562
9348, 89.452940, 44.037594, 53.321158
9349, 91.444736, 44.322981, 53.684071
9350, 92.004237, 45.282134, 53.179218
9351, 92.679470, 44.590972, 54.090926
9352, 93.064305, 45.723989, 53.530082
9353, 91.173530, 45.686841, 52.405199
9354, 91.586246, 45.894993, 52.527692
9355, 91.882595, 46.323634, 52.423249
9356, 91.294614, 46.235396, 52.088895
9357, 91.333067, 45.273582, 52.852087
9358, 91.681731, 45.687168, 52.724290
9359, 92.086470, 45.862015, 52.855076
9360, 91.007166, 44.722140, 53.146383
9361, 93.727129, 47.061343, 53.329314
9362, 93.935425, 49.527048, 52.935437
9363, 91.553300, 46.780137, 51.892201
9364, 92.022252, 47.084092, 52.117181
9365, 92.305377, 47.824595, 52.021445
9366, 92.585842, 47.144882, 52.487087
9367, 92.830920, 47.914473, 52.409967
9368, 93.049190, 47.026372, 52.855322
9369, 93.173420, 47.635660, 52.729134
9370, 92.436768, 48.365853, 51.965110
9371, 92.804249, 48.729946, 52.192078
9372, 93.270673, 48.237501, 52.620520
9373, 93.324338, 48.830713, 52.559570
9374, 93.615074, 47.978046, 52.933390
9375, 93.758091, 48.774841, 52.894779
9376, 92.917450, 49.590773, 52.167969
9377, 93.408939, 49.594889, 52.540400
9378, 92.382989, 46.585379, 52.613786
9379, 92.661342, 46.298283, 52.947793
9380, 94.382932, 47.993345, 53.529095
9381, 94.502113, 49.235483, 53.397654
9382, 93.937532, 50.499652, 52.937963
9383, 94.498419, 50.798698, 53.393307
9384, 5.900867, 51.801949, 53.162485
9385, 5.565200, 52.055218, 53.484513
9386, 5.818592, 51.292681, 53.120379
9387, 6.353115, 52.023888, 52.908334
9388, 6.247221, 52.919865, 53.283269
9389, 6.197666, 51.238060, 52.848001
9390, 6.550255, 50.421964, 52.517685
9391, 7.037811, 50.403389, 52.175389
9392, 7.166477, 51.242965, 52.183954
9393, 6.643124, 51.169917, 52.527191
9394, 7.582972, 51.561196, 51.958878
9395, 7.126552, 52.067963, 52.387202
9396, 6.702693, 51.755677, 52.601057
9397, 6.793345, 52.347376, 52.709700
9398, 7.671953, 52.134431, 52.041494
9399, 7.947720, 52.885964, 52.148288
9400, 7.388010, 52.818471, 52.496522
9401, 6.915451, 52.935432, 52.839453
9402, 8.443393, 53.171913, 51.965686
9403, 7.825356, 54.799801, 53.340620
9404, 6.848879, 54.044449, 53.431128
9405, 8.074681, 53.663539, 52.470910
9406, 8.688611, 53.760188, 52.147623
9407, 8.837717, 54.404783, 52.492207
9408, 8.358116, 54.149195, 52.583495
9409, 7.820482, 54.130414, 52.888465
9410, 8.452397, 54.699381, 52.939090
9411, 8.204553, 54.332910, 52.799536
9412, 7.571631, 53.378345, 52.619491
9413, 7.279952, 53.628139, 52.932223
9414, 10.118279, 56.212544, 53.598301
9415, 8.767487, 55.693290, 53.593862
9416, 11.638950, 56.403154, 53.550750
9417, 9.221614, 54.016726, 51.972075
9418, 10.063601, 54.737600, 52.016377
9419, 9.525490, 54.485996, 52.163514
9420, 10.390991, 55.184440, 52.309171
9421, 9.726877, 55.036146, 52.526123
9422, 10.401592, 55.662511, 52.854895
9423, 9.808128, 55.561269, 52.972356
9424, 11.167979, 55.537603, 52.325880
9425, 10.920945, 55.812627, 52.818978
9426, 11.884779, 55.478728, 52.054711
9427, 12.106853, 55.847069, 52.641470
9428, 11.545697, 55.871981, 52.796229
9429, 11.213840, 56.162748, 53.265794
9430, 10.486252, 56.090691, 53.313872
9431, 9.196979, 54.896273, 52.679684
9432, 9.050740, 55.221272, 53.035898
9433, 12.519500, 55.437339, 51.642582
9434, 13.309866, 55.697309, 52.155296
9435, 13.294730, 56.359367, 53.472297
9436, 14.968804, 55.786325, 52.211182
9437, 11.489906, 54.817836, 50.304640
9438, 11.441120, 54.847072, 50.760051
9439, 11.966107, 55.002886, 50.404412
9440, 11.734645, 55.030145, 51.005798
9441, 12.605560, 55.234162, 50.652264
9442, 12.191687, 55.183616, 51.054767
9443, 11.724963, 55.237104, 51.532497
9444, 12.150968, 55.305726, 51.411036
9445, 16.550639, 55.785026, 52.310373
9446, 14.921577, 56.298995, 53.574686
9447, 16.538842, 56.183683, 53.755007
9448, 27.782754, 55.013504, 52.500704
9449, 29.296753, 54.786497, 52.370434
9450, 28.457177, 53.838483, 55.162787
9451, 29.523231, 53.548504, 55.067206
9452, 27.819087, 54.479136, 54.229219
9453, 29.356875, 54.264373, 53.854908
9454, 30.743722, 54.612360, 52.297045
9455, 32.199082, 54.476845, 52.318736
9456, 30.845670, 53.329207, 54.874016
9457, 32.241078, 53.237962, 54.697504
9458, 30.756798, 54.071723, 53.665999
9459, 32.092491, 53.969249, 53.586194
9460, 28.026106, 53.318922, 56.172694
9461, 29.427236, 52.576696, 56.257184
9462, 27.369754, 54.096996, 55.395375
9463, 27.926351, 52.273992, 57.322196
9464, 28.857747, 51.931056, 56.996303
9465, 30.844646, 52.319631, 55.971137
9466, 32.281919, 52.187922, 55.729878
9467, 34.319965, 53.768545, 53.502616
9468, 35.506237, 53.649300, 53.491184
9469, 33.732120, 54.262158, 52.522858
9470, 35.366366, 54.219039, 52.259373
9471, 33.738586, 53.241541, 54.434205
9472, 35.391512, 52.788384, 54.689835
9473, 33.169822, 53.887244, 53.549102
9474, 36.947191, 53.625451, 53.389866
9475, 38.438928, 53.607294, 53.309399
9476, 36.896246, 54.193523, 52.144196
9477, 38.400340, 54.156780, 52.073316
9478, 36.978115, 52.846410, 54.485722
9479, 38.475525, 52.848625, 54.399081
9480, 33.682145, 52.141947, 55.549436
9481, 34.830813, 52.020821, 55.454573
9482, 39.945980, 53.594519, 53.258225
9483, 41.461169, 53.565855, 53.240760
9484, 39.928245, 54.140908, 52.030025
9485, 41.456015, 54.125986, 52.013144
9486, 39.970371, 52.806940, 54.311237
9487, 41.468534, 52.769940, 54.269475
9488, 42.981948, 53.540190, 53.243187
9489, 44.506617, 53.505508, 53.274106
9490, 42.990043, 54.119679, 52.013561
9491, 44.530631, 54.104184, 52.032235
9492, 42.968333, 52.727506, 54.263842
9493, 44.467578, 52.672052, 54.309945
9494, 46.037758, 53.446548, 53.328637
9495, 47.581943, 53.411227, 53.417065
9496, 46.073663, 54.076313, 52.059681
9497, 47.626675, 54.082938, 52.108391
9498, 45.974157, 52.560511, 54.401642
9499, 47.487171, 52.405106, 54.561341
9500, 49.162576, 53.400201, 53.486850
9501, 50.756382, 53.357635, 53.496161
9502, 49.197977, 54.089574, 52.147859
9503, 50.773047, 54.045059, 52.163595
9504, 49.108265, 52.332702, 54.647497
9505, 50.724775, 52.288191, 54.678211
9506, 52.337163, 53.349885, 53.505550
9507, 53.923225, 53.367139, 53.494267
9508, 52.338816, 54.018154, 52.164137
9509, 53.910545, 54.041814, 52.174319
9510, 52.344319, 52.286627, 54.682198
9511, 53.949684, 52.352115, 54.684990
9512, 55.496019, 53.435417, 53.457995
9513, 57.044604, 53.497988, 53.392208
9514, 55.470466, 54.049241, 52.133688
9515, 57.024796, 54.101027, 52.104849
9516, 55.566252, 52.424807, 54.622795
9517, 57.084203, 52.629258, 54.504064
9518, 58.571764, 53.563137, 53.356236
9519, 60.080797, 53.615640, 53.347516
9520, 58.563464, 54.136734, 52.078592
9521, 60.088546, 54.157563, 52.072863
9522, 58.587901, 52.751660, 54.443389
9523, 60.072285, 52.815498, 54.420028
9524, 61.574344, 53.655569, 53.375234
9525, 63.064703, 53.688861, 53.439339
9526, 61.603928, 54.201205, 52.099442
9527, 63.116837, 54.235269, 52.156855
9528, 61.552176, 52.860523, 54.452282
9529, 63.039958, 52.880323, 54.539359
9530, 64.502099, 53.713433, 53.521168
9531, 65.683900, 53.784245, 53.509317
9532, 64.645421, 54.260054, 52.267020
9533, 66.278631, 54.270502, 52.525246
9534, 64.619038, 52.827585, 54.728117
9535, 66.273215, 53.239652, 54.439193
9536, 67.802273, 54.478204, 52.326190
9537, 69.260099, 54.608202, 52.303319
9538, 67.761831, 53.226406, 54.709179
9539, 69.158248, 53.332705, 54.904273
9540, 67.914677, 53.948572, 53.584851
9541, 66.840882, 53.862560, 53.539122
9542, 69.239094, 54.077034, 53.689733
9543, 66.332697, 52.139628, 55.561106
9544, 65.188204, 52.037197, 55.475812
9545, 67.714447, 52.194934, 55.777541
9546, 69.157862, 52.345752, 56.025163
9547, 70.719148, 54.751293, 52.372375
9548, 72.221352, 54.953192, 52.501656
9549, 70.472065, 53.533101, 55.096446
9550, 71.546626, 53.801990, 55.169486
9551, 70.649187, 54.225383, 53.859048
9552, 72.162309, 54.416914, 54.233315
9553, 70.590231, 52.559613, 56.299472
9554, 71.994417, 53.304489, 56.197700
9555, 72.099431, 52.265125, 57.363615
9556, 71.156696, 51.903324, 57.063671
9557, 72.585882, 54.023775, 55.424780
9558, 83.565177, 55.773860, 52.229936
9559, 84.658031, 55.484564, 51.029126
9560, 84.252485, 55.489994, 50.639195
9561, 85.140311, 55.449570, 50.959646
9562, 85.019100, 55.373698, 50.395845
9563, 84.699696, 55.558525, 51.378837
9564, 85.139378, 55.552004, 51.457162
9565, 84.339632, 55.626717, 51.617759
9566, 84.996871, 55.694389, 51.935677
9567, 83.531926, 56.230936, 53.711048
9568, 84.842420, 55.919204, 52.585774
9569, 85.181722, 56.327940, 53.547180
9570, 86.706575, 56.404983, 53.513835
9571, 85.689895, 55.720011, 52.043697
9572, 86.391850, 55.700200, 52.125534
9573, 87.137006, 55.643947, 52.219530
9574, 85.625427, 55.925935, 52.606196
9575, 85.677198, 56.138493, 53.085351
9576, 86.314508, 55.947186, 52.665236
9577, 86.230439, 56.159854, 53.093121
9578, 87.032813, 55.985794, 52.804220
9579, 88.363453, 56.305209, 53.461399
9580, 92.089561, 54.803651, 53.299518
9581, 93.684432, 52.902165, 53.278123
9582, 92.438006, 51.645124, 52.025274
9583, 92.913165, 50.422282, 52.181855
9584, 92.821849, 51.286462, 52.206390
9585, 93.413095, 50.431741, 52.542706
9586, 93.318349, 51.185360, 52.571037
9587, 93.746964, 51.236952, 52.882145
9588, 92.336762, 52.188974, 52.094588
9589, 92.852496, 52.094432, 52.419918
9590, 93.162560, 52.350972, 52.734596
9591, 93.263521, 51.768559, 52.633704
9592, 93.593924, 52.018142, 52.934944
9593, 92.002868, 52.911244, 52.172689
9594, 91.520375, 53.244009, 51.961097
9595, 92.580012, 52.838069, 52.503175
9596, 93.030469, 52.933795, 52.854108
9597, 94.348352, 52.026753, 53.494236
9598, 93.078167, 54.028715, 53.403448
9599, 89.869643, 56.035575, 53.468381
9600, 89.159882, 55.022327, 52.049455
9601, 89.679631, 54.818572, 52.106042
9602, 90.725974, 54.057331, 51.996244
9603, 90.414084, 54.578806, 52.264693
9604, 90.660503, 54.900454, 52.687819
9605, 88.801863, 55.409736, 52.395910
9606, 87.965126, 55.552949, 52.283477
9607, 89.092387, 55.617424, 52.781419
9608, 89.533245, 55.209492, 52.462399
9609, 89.570138, 55.504048, 52.819060
9610, 90.056478, 55.052406, 52.547680
9611, 90.222049, 55.369839, 52.909517
9612, 88.545659, 55.746081, 52.768663
9613, 87.971723, 55.891560, 52.842867
9614, 88.876422, 55.904979, 53.048236
9615, 89.438513, 55.825844, 53.108494
9616, 91.185512, 55.657846, 53.566279
9617, 91.261611, 53.769748, 52.136217
9618, 91.884938, 53.675386, 52.461395
9619, 91.584892, 54.107331, 52.563191
9620, 91.154517, 54.305195, 52.458870
9621, 92.127189, 54.151086, 52.893126
9622, 91.703060, 54.325297, 52.759665
9623, 91.345534, 54.752277, 52.888806
9624, 90.925237, 55.272473, 53.106304
9625, 92.385026, 53.388626, 52.621011
9626, 92.661295, 53.628789, 52.935163
9627, 8.904207, 46.509053, 48.281294
9628, 9.418773, 46.204726, 48.475950
9629, 9.102092, 46.745252, 48.688080
9630, 8.639267, 47.100307, 48.483834
9631, 10.630071, 45.072451, 48.131790
9632, 11.157587, 44.936567, 48.321416
9633, 10.833446, 45.209380, 48.604014
9634, 10.282669, 45.441414, 48.431188
9635, 11.332962, 45.022183, 48.796535
9636, 11.040618, 45.238226, 49.079439
9637, 9.740689, 45.701719, 48.210656
9638, 9.903519, 45.872097, 48.682926
9639, 10.492842, 45.607032, 49.069961
9640, 10.026724, 45.998949, 49.133268
9641, 9.580004, 46.410602, 49.105527
9642, 9.229938, 46.918710, 49.121046
9643, 10.527640, 45.651664, 49.686910
9644, 11.035925, 45.355715, 49.694920
9645, 10.076649, 46.060111, 49.694157
9646, 9.655504, 46.538634, 49.687754
9647, 9.253667, 47.099695, 49.686798
9648, 10.516547, 45.644547, 50.285065
9649, 11.039005, 45.388382, 50.290275
9650, 10.045449, 46.032471, 50.274259
9651, 9.594270, 46.486301, 50.282114
9652, 9.203511, 47.064640, 50.308113
9653, 8.188760, 47.375964, 48.205696
9654, 8.372701, 47.874116, 48.645354
9655, 8.011736, 47.963190, 48.304500
9656, 8.202002, 48.445480, 48.700445
9657, 7.855423, 48.756267, 48.389853
9658, 8.878860, 47.368035, 49.043325
9659, 8.618074, 47.978258, 49.105382
9660, 8.354573, 48.749097, 49.094116
9661, 7.479132, 49.057154, 48.097423
9662, 7.784494, 49.606354, 48.440730
9663, 7.447501, 49.651982, 48.100705
9664, 7.804581, 50.373960, 48.427679
9665, 7.445777, 50.338722, 48.106801
9666, 8.132507, 49.058869, 48.743006
9667, 8.328425, 49.580654, 49.191553
9668, 8.085581, 49.643441, 48.791353
9669, 8.341128, 50.367339, 49.196186
9670, 8.118017, 50.324426, 48.777009
9671, 9.019651, 47.467058, 49.471133
9672, 8.972616, 47.466562, 49.873345
9673, 8.789284, 47.893917, 49.687973
9674, 8.546382, 48.738139, 49.697862
9675, 8.784111, 47.889950, 50.302407
9676, 8.961562, 47.468927, 50.117077
9677, 8.543216, 48.735737, 50.284400
9678, 8.470516, 49.559237, 49.721406
9679, 8.501711, 50.348968, 49.725569
9680, 8.446555, 49.552986, 50.265190
9681, 8.546519, 50.341691, 50.274687
9682, 88.680862, 44.965955, 48.015153
9683, 88.940836, 45.263231, 48.343939
9684, 89.661848, 45.595058, 48.361954
9685, 89.977143, 46.008989, 48.588561
9686, 88.925723, 45.556988, 49.011235
9687, 89.347765, 45.830964, 49.287502
9688, 89.460450, 45.757078, 48.804589
9689, 89.837971, 46.103988, 49.080251
9690, 90.176328, 46.543483, 49.300162
9691, 90.188985, 45.780192, 48.146528
9692, 90.487736, 46.251918, 48.391405
9693, 90.741345, 46.768507, 48.604795
9694, 90.976764, 46.548616, 48.180945
9695, 91.208513, 47.098282, 48.372252
9696, 90.291727, 46.428936, 48.837892
9697, 90.556878, 46.930084, 49.074757
9698, 88.749359, 45.618313, 49.678458
9699, 89.264018, 45.907643, 49.730089
9700, 89.743693, 46.225512, 49.706338
9701, 90.109359, 46.594753, 49.695964
9702, 88.749126, 45.568417, 50.341553
9703, 89.280268, 45.868541, 50.275786
9704, 89.822828, 46.201250, 50.307544
9705, 90.113675, 46.583106, 50.078383
9706, 91.411235, 47.771288, 48.571364
9707, 90.753182, 47.456257, 49.266225
9708, 90.950972, 47.297933, 48.830095
9709, 91.071120, 47.874759, 49.032061
9710, 90.433152, 47.003605, 49.700194
9711, 90.696860, 47.521324, 49.723915
9712, 90.383421, 46.952902, 50.306791
9713, 90.684579, 47.522340, 50.279760
9714, 91.167796, 48.919958, 49.604871
9715, 91.129665, 48.632618, 49.536065
9716, 91.206909, 49.145579, 49.654315
9717, 91.111749, 48.883081, 49.835285
9718, 91.055923, 48.532939, 49.795226
9719, 91.175882, 49.154076, 49.843487
9720, 91.129864, 48.225048, 49.184581
9721, 91.102765, 48.348172, 49.417225
9722, 90.963449, 48.069203, 49.650637
9723, 92.281381, 47.731422, 47.849167
9724, 91.688118, 47.389031, 48.112270
9725, 91.902655, 47.978961, 48.228545
9726, 92.402704, 48.069394, 47.874535
9727, 92.282413, 48.570684, 48.104529
9728, 92.265455, 48.241188, 48.026144
9729, 91.515252, 48.074251, 48.653050
9730, 91.808222, 48.613801, 48.505860
9731, 91.707347, 48.216210, 48.463261
9732, 92.032354, 48.535748, 48.290380
9733, 92.874457, 48.686625, 47.726946
9734, 92.687842, 48.525726, 47.805307
9735, 92.827386, 47.818228, 47.516911
9736, 92.958437, 48.194778, 47.532996
9737, 92.886729, 48.401059, 47.637697
9738, 92.656370, 48.237807, 47.744467
9739, 93.296995, 48.671709, 47.441949
9740, 93.105670, 48.724656, 47.584049
9741, 93.169224, 48.351847, 47.438905
9742, 93.053034, 48.494248, 47.553610
9743, 92.532227, 48.656668, 47.945933
9744, 92.481981, 48.379564, 47.900645
9745, 93.156263, 47.527214, 47.208233
9746, 93.817335, 48.530214, 47.029410
9747, 93.509043, 48.583982, 47.272698
9748, 93.610015, 47.814718, 46.996359
9749, 93.297265, 48.106630, 47.290203
9750, 91.449596, 48.678719, 48.906184
9751, 91.315164, 48.719293, 49.126637
9752, 91.373863, 48.293632, 48.886119
9753, 91.231761, 48.442134, 49.111707
9754, 91.217508, 48.718589, 49.334527
9755, 91.174312, 48.509496, 49.281176
9756, 91.621203, 48.676173, 48.699340
9757, 91.562431, 48.411578, 48.693642
9758, 7.883615, 51.224597, 48.371911
9759, 7.509518, 50.929508, 48.071707
9760, 8.279640, 51.513383, 48.667145
9761, 8.435807, 52.110240, 48.625112
9762, 8.053510, 52.011754, 48.280845
9763, 8.452799, 51.211703, 49.070859
9764, 8.156654, 50.918299, 48.737050
9765, 9.085571, 52.443999, 49.324014
9766, 8.773330, 52.042371, 49.092677
9767, 8.662383, 52.862900, 48.440580
9768, 8.219637, 52.588036, 48.182032
9769, 9.095363, 53.195709, 48.695446
9770, 9.428651, 53.758341, 48.487652
9771, 8.916337, 53.461249, 48.267646
9772, 9.245242, 52.917171, 49.107022
9773, 8.883914, 52.618447, 48.878493
9774, 8.648525, 51.126603, 49.709563
9775, 9.108250, 52.403431, 49.767321
9776, 8.876939, 51.845356, 49.720695
9777, 8.676085, 51.120092, 50.324260
9778, 9.148598, 52.381208, 50.287308
9779, 8.888858, 51.844285, 50.319187
9780, 9.925846, 54.073733, 48.707114
9781, 10.055720, 53.951174, 49.163272
9782, 9.650158, 53.486549, 49.102858
9783, 9.369032, 52.907752, 49.731834
9784, 10.151026, 53.851886, 49.729700
9785, 9.759556, 53.391678, 49.717708
9786, 9.423245, 52.880058, 50.325015
9787, 10.177269, 53.838276, 50.314072
9788, 9.785661, 53.374176, 50.314917
9789, 10.272330, 54.530665, 48.486760
9790, 9.735997, 54.271287, 48.246185
9791, 10.814068, 54.764215, 48.659158
9792, 11.122187, 55.060985, 48.400823
9793, 10.602098, 54.915392, 48.219583
9794, 11.030614, 54.717954, 49.114635
9795, 10.503916, 54.343980, 49.115975
9796, 11.320238, 54.933572, 48.824394
9797, 11.052257, 54.576588, 49.724416
9798, 10.604349, 54.218822, 49.725162
9799, 11.054889, 54.570965, 50.325250
9800, 10.593490, 54.233826, 50.324882
9801, 85.722507, 55.499963, 48.469211
9802, 86.412425, 55.430495, 48.408714
9803, 85.730196, 55.357560, 49.039249
9804, 86.418440, 55.254526, 49.026017
9805, 88.309104, 54.884635, 48.546836
9806, 87.158644, 55.312828, 48.324586
9807, 87.952007, 55.166495, 48.240366
9808, 87.591730, 54.869553, 49.245454
9809, 88.101501, 54.754097, 49.034497
9810, 87.169768, 55.087912, 48.985321
9811, 87.741875, 55.022415, 48.750245
9812, 85.702094, 55.301426, 49.672000
9813, 86.371459, 55.163455, 49.681211
9814, 85.695768, 55.278405, 50.352328
9815, 86.363984, 55.149976, 50.349227
9816, 87.566293, 54.824194, 49.729537
9817, 88.103715, 54.623842, 49.692747
9818, 87.028032, 55.006067, 49.683255
9819, 87.560926, 54.816369, 50.298233
9820, 88.104653, 54.639123, 50.320407
9821, 87.025154, 55.005596, 50.339713
9822, 91.635444, 52.214524, 48.389236
9823, 89.886741, 53.983322, 48.570294
9824, 89.179879, 54.074826, 49.284683
9825, 90.654261, 53.258300, 48.589210
9826, 91.285398, 52.707887, 48.404260
9827, 90.414253, 53.726083, 48.373577
9828, 91.089565, 53.481227, 48.089184
9829, 90.735430, 52.781159, 48.937276
9830, 90.330092, 53.169570, 49.034851
9831, 90.571411, 53.132960, 48.798622
9832, 89.948833, 53.457820, 49.238699
9833, 89.667422, 53.849112, 49.046879
9834, 90.160845, 53.349192, 49.058803
9835, 90.241145, 53.569009, 48.765908
9836, 89.124740, 54.054523, 49.731908
9837, 89.536686, 53.755596, 49.686771
9838, 89.132539, 54.066854, 50.267798
9839, 92.365328, 52.364360, 47.786984
9840, 92.138938, 52.279628, 47.997467
9841, 91.813624, 52.688858, 48.020269
9842, 92.429972, 52.096226, 47.840866
9843, 92.389243, 52.028410, 47.891978
9844, 92.416873, 51.531517, 48.028330
9845, 91.603675, 52.088687, 48.471923
9846, 91.879803, 51.876973, 48.315220
9847, 91.966687, 51.561977, 48.374057
9848, 92.195222, 51.728058, 48.129465
9849, 91.235120, 51.916023, 48.907608
9850, 91.079066, 52.035767, 49.010016
9851, 91.367798, 51.512912, 48.968816
9852, 91.636525, 51.730403, 48.603777
9853, 91.735189, 51.449907, 48.639392
9854, 91.408540, 52.184535, 48.614397
9855, 91.226039, 52.003785, 48.877472
9856, 91.049803, 52.114870, 49.003910
9857, 91.258256, 52.469788, 48.627849
9858, 91.173538, 52.571510, 48.630629
9859, 91.184812, 52.361237, 48.758968
9860, 91.008483, 52.597200, 48.795388
9861, 91.313620, 52.527782, 48.511053
9862, 91.001674, 52.751737, 48.660410
9863, 92.870502, 51.603765, 47.674236
9864, 92.680551, 51.884111, 47.724662
9865, 92.833130, 52.189433, 47.529448
9866, 92.957801, 51.808921, 47.551325
9867, 92.932501, 51.266511, 47.732356
9868, 93.055069, 51.503610, 47.570978
9869, 93.166280, 51.644696, 47.452925
9870, 93.128038, 51.265641, 47.586944
9871, 93.301445, 51.320642, 47.447437
9872, 92.740837, 51.512928, 47.797560
9873, 92.622675, 51.713105, 47.820806
9874, 92.736185, 51.265366, 47.878566
9875, 92.544496, 51.347688, 47.993023
9876, 93.152741, 52.442595, 47.212529
9877, 93.294373, 51.881409, 47.293449
9878, 93.596581, 52.143865, 46.986763
9879, 93.502994, 51.404423, 47.272436
9880, 93.804797, 51.450634, 47.025221
9881, 88.874007, 54.730603, 48.367240
9882, 89.584963, 54.375805, 48.342226
9883, 88.549024, 55.070550, 48.072561
9884, 88.844690, 54.437726, 49.038614
9885, 89.371999, 54.221756, 48.809290
9886, 90.147430, 54.222406, 48.126868
9887, 88.670442, 54.343336, 49.692167
9888, 88.669653, 54.348173, 50.323833
9889, 90.023289, 53.354884, 49.308308
9890, 90.145899, 53.223051, 49.258513
9891, 90.286414, 53.063490, 49.238424
9892, 90.025516, 53.303906, 49.519441
9893, 90.115687, 53.176357, 49.616342
9894, 90.146427, 53.182475, 49.432904
9895, 90.264654, 53.024394, 49.520005
9896, 89.867818, 53.419386, 49.696456
9897, 90.049667, 53.200380, 49.810662
9898, 8.869883, 46.465501, 51.703090
9899, 9.365506, 46.137738, 51.479704
9900, 9.033072, 46.689849, 51.279499
9901, 8.614373, 47.092279, 51.518648
9902, 11.315686, 45.032732, 51.194116
9903, 11.015101, 45.257423, 50.901744
9904, 11.136953, 44.910483, 51.665573
9905, 10.797076, 45.196020, 51.367601
9906, 10.427894, 45.539444, 50.876410
9907, 9.984312, 45.958275, 50.824191
9908, 9.523813, 46.361571, 50.860296
9909, 9.144880, 46.863852, 50.849215
9910, 10.216684, 45.369186, 51.499357
9911, 9.843840, 45.798799, 51.260542
9912, 10.577743, 45.011143, 51.825880
9913, 9.684472, 45.634046, 51.705731
9914, 8.943558, 47.427206, 50.534645
9915, 8.800335, 47.327239, 50.936017
9916, 8.536295, 47.948855, 50.854578
9917, 8.291445, 48.738638, 50.873416
9918, 8.353115, 47.871638, 51.344501
9919, 8.186830, 48.454092, 51.288504
9920, 8.285112, 49.573638, 50.782343
9921, 8.342832, 50.364047, 50.798888
9922, 8.090223, 49.043494, 51.227103
9923, 8.126575, 49.633762, 51.216590
9924, 7.818682, 48.751549, 51.575015
9925, 7.789059, 49.603665, 51.550543
9926, 8.122238, 50.323893, 51.223966
9927, 7.804593, 50.376400, 51.563763
9928, 8.158928, 47.373575, 51.774367
9929, 7.987218, 47.962522, 51.678553
9930, 7.459864, 49.059134, 51.877765
9931, 7.435683, 49.652968, 51.877042
9932, 7.451491, 50.342397, 51.889805
9933, 88.894449, 45.499040, 50.992890
9934, 89.272825, 45.817494, 50.725594
9935, 89.744129, 46.018999, 50.929926
9936, 88.940714, 45.215974, 51.604021
9937, 89.426478, 45.675127, 51.187040
9938, 89.652016, 45.537659, 51.601692
9939, 89.984827, 45.900109, 51.332975
9940, 90.125421, 46.550604, 50.536710
9941, 90.261706, 46.438937, 50.974272
9942, 90.698135, 46.955305, 50.884436
9943, 90.533763, 46.186428, 51.494182
9944, 90.824467, 46.746071, 51.311412
9945, 88.635558, 44.924103, 51.904031
9946, 90.198223, 45.728076, 51.792331
9947, 91.039808, 46.492522, 51.703565
9948, 91.286248, 47.059769, 51.514365
9949, 90.842799, 47.445235, 50.672081
9950, 91.030568, 47.289305, 51.117625
9951, 91.156994, 47.830870, 50.901756
9952, 91.482137, 47.715930, 51.323386
9953, 91.234095, 48.834133, 50.344573
9954, 91.193087, 48.595597, 50.419501
9955, 91.083859, 48.532169, 50.172906
9956, 91.184894, 48.897444, 50.127036
9957, 91.229921, 49.140101, 50.027158
9958, 91.173863, 48.319192, 50.538198
9959, 90.993352, 48.059154, 50.319897
9960, 91.230460, 48.178747, 50.756780
9961, 91.297571, 48.689353, 50.612868
9962, 91.430685, 48.679852, 50.865840
9963, 91.264739, 48.468253, 50.666189
9964, 91.320968, 48.393634, 50.844708
9965, 91.517999, 48.520876, 51.033092
9966, 91.434174, 48.231080, 51.054792
9967, 91.561843, 48.055306, 51.250992
9968, 91.691710, 48.657008, 51.179456
9969, 91.880392, 48.586420, 51.421002
9970, 91.619548, 48.373937, 51.211144
9971, 91.742717, 48.236183, 51.385859
9972, 92.166528, 48.581191, 51.688903
9973, 91.890447, 47.942364, 51.636257
9974, 92.108123, 49.031529, 51.547438
9975, 92.161852, 49.411597, 51.550647
9976, 92.236926, 49.761594, 51.575751
9977, 92.450172, 49.019789, 51.847130
9978, 92.294444, 49.140835, 51.696227
9979, 92.318776, 49.388141, 51.689117
9980, 92.499503, 49.623448, 51.818714
9981, 91.735407, 47.360886, 51.755382
9982, 91.835791, 49.012825, 51.216909
9983, 91.948413, 48.874316, 51.389098
9984, 91.841482, 49.423686, 51.181511
9985, 91.975025, 49.164645, 51.384815
9986, 91.994346, 49.448523, 51.380669
9987, 91.861473, 49.806692, 51.167894
9988, 92.023476, 49.796546, 51.382768
9989, 92.236825, 50.229083, 51.570600
9990, 92.489378, 50.380454, 51.824182
9991, 8.480890, 51.210401, 50.940843
9992, 9.043307, 52.472402, 50.685512
9993, 8.782069, 52.050624, 50.916645
9994, 8.178847, 50.923238, 51.280373
9995, 8.274833, 51.518066, 51.322788
9996, 7.891917, 51.229310, 51.624529
9997, 8.451038, 52.110785, 51.384425
9998, 9.244320, 52.937263, 50.907799
9999, 8.913586, 52.624610, 51.159927
10000, 9.134815, 53.169676, 51.350751
10001, 8.674833, 52.863260, 51.568295
10002, 7.498393, 50.939783, 51.898962
10003, 8.072687, 52.011077, 51.729742
10004, 8.239459, 52.582713, 51.832899
10005, 9.441009, 53.745342, 51.525690
10006, 8.929253, 53.470257, 51.752500
10007, 10.076817, 53.923638, 50.878116
10008, 9.639232, 53.493486, 50.907998
10009, 9.974364, 54.019023, 51.341256
10010, 11.045492, 54.679755, 50.943636
10011, 10.504428, 54.332613, 50.929611
10012, 10.834052, 54.734458, 51.400279
10013, 10.300593, 54.494811, 51.570856
10014, 11.302776, 54.937681, 51.211761
10015, 11.154598, 55.027695, 51.682242
10016, 9.750862, 54.246538, 51.748236
10017, 10.613670, 54.906764, 51.851464
10018, 85.749875, 55.399417, 50.951638
10019, 86.428585, 55.287307, 50.970525
10020, 85.748970, 55.520122, 51.514586
10021, 86.433303, 55.470413, 51.562313
10022, 87.601062, 54.931299, 50.760469
10023, 88.106621, 54.791974, 50.955608
10024, 87.170878, 55.112965, 51.012769
10025, 88.316969, 54.951227, 51.415090
10026, 87.173312, 55.375627, 51.619205
10027, 87.735285, 55.046578, 51.237007
10028, 87.945143, 55.209872, 51.696898
10029, 89.543378, 53.764780, 50.284010
10030, 89.223377, 54.146053, 50.709573
10031, 89.680785, 53.858436, 50.896184
10032, 89.929484, 54.040141, 51.348869
10033, 90.764131, 53.304717, 51.365266
10034, 90.649555, 53.215283, 51.162716
10035, 89.910195, 53.585901, 50.637068
10036, 90.137301, 53.410383, 50.797442
10037, 90.290032, 53.516794, 51.081204
10038, 90.478215, 53.793752, 51.612650
10039, 91.258864, 53.001875, 51.635860
10040, 91.013081, 53.555472, 51.793730
10041, 92.141046, 50.599584, 51.519946
10042, 92.164191, 51.005299, 51.586505
10043, 92.207826, 51.456045, 51.738676
10044, 92.320594, 50.622922, 51.685773
10045, 92.318948, 50.876674, 51.712747
10046, 92.470547, 50.998955, 51.864269
10047, 91.890162, 50.198092, 51.161864
10048, 91.869424, 50.611456, 51.219579
10049, 91.977629, 50.765667, 51.390035
10050, 92.036900, 50.170611, 51.377150
10051, 92.007724, 50.462121, 51.383335
10052, 91.793362, 51.035988, 51.189893
10053, 91.958032, 51.084658, 51.408011
10054, 91.522436, 51.585471, 51.016896
10055, 91.677373, 51.464585, 51.181780
10056, 91.886871, 51.533007, 51.459091
10057, 92.001302, 52.103830, 51.776297
10058, 91.733693, 52.635830, 51.794800
10059, 91.436787, 51.871198, 51.065564
10060, 91.348972, 52.206244, 51.155260
10061, 91.167091, 52.373848, 51.049676
10062, 91.495001, 52.334794, 51.445276
10063, 91.441329, 52.326060, 51.363189
10064, 91.562452, 51.879817, 51.267426
10065, 91.484717, 52.078445, 51.272829
10066, 91.689827, 52.122749, 51.524733
10067, 91.533831, 52.143469, 51.391104
10068, 91.266590, 52.465046, 51.237446
10069, 91.080562, 52.649173, 51.158841
10070, 91.341644, 52.531288, 51.387417
10071, 91.220424, 52.717272, 51.402170
10072, 91.444268, 52.601508, 51.534593
10073, 91.637622, 52.445667, 51.611113
10074, 90.941650, 52.935507, 51.243172
10075, 88.840970, 54.457123, 50.971668
10076, 88.891092, 54.819166, 51.602781
10077, 89.392448, 54.279648, 51.177560
10078, 89.615876, 54.451250, 51.627048
10079, 89.878338, 53.436148, 50.245689
10080, 90.034941, 53.221517, 50.094678
10081, 90.250947, 53.182318, 50.574575
10082, 90.122260, 53.290686, 50.450112
10083, 90.361155, 53.018444, 50.502491
10084, 90.222756, 53.070825, 50.207313
10085, 90.272320, 53.219894, 50.734971
10086, 90.371358, 53.091357, 50.717275
10087, 90.346628, 53.244870, 50.880404
10088, 90.552620, 52.994350, 50.853091
10089, 88.537375, 55.128046, 51.925749
10090, 90.172257, 54.277756, 51.838259
10091, 92.304863, 48.847046, 48.164037
10092, 92.497070, 49.023170, 48.071803
10093, 92.535834, 49.430290, 48.088277
10094, 92.558717, 49.813582, 48.115084
10095, 92.575316, 50.198607, 48.137464
10096, 91.900878, 48.984524, 48.551215
10097, 91.930002, 49.345408, 48.595952
10098, 91.510052, 49.021579, 48.932425
10099, 91.691969, 49.014230, 48.737700
10100, 91.558812, 49.352350, 48.961617
10101, 91.737946, 49.374138, 48.772166
10102, 92.148990, 48.974767, 48.338249
10103, 92.127624, 49.387181, 48.419216
10104, 92.328542, 49.146995, 48.221366
10105, 92.326178, 49.444226, 48.246421
10106, 91.925551, 49.638869, 48.618855
10107, 91.598087, 49.635992, 48.962791
10108, 91.767119, 49.785400, 48.791297
10109, 91.804531, 50.200206, 48.824205
10110, 92.088463, 49.785371, 48.480363
10111, 92.329794, 49.809044, 48.285499
10112, 92.127654, 50.198679, 48.481054
10113, 92.352906, 50.191191, 48.312004
10114, 91.931298, 49.924478, 48.631993
10115, 91.955703, 50.199107, 48.645822
10116, 92.939409, 49.066965, 47.752672
10117, 93.371391, 49.033970, 47.434562
10118, 93.155178, 49.063451, 47.594421
10119, 92.976344, 49.437697, 47.764118
10120, 93.425763, 49.410523, 47.435440
10121, 93.198491, 49.429472, 47.600712
10122, 92.718374, 48.805920, 47.864577
10123, 92.730983, 49.084023, 47.906955
10124, 92.756204, 49.442111, 47.925661
10125, 93.004999, 49.814566, 47.782259
10126, 93.464926, 49.799781, 47.448547
10127, 93.231230, 49.809724, 47.616881
10128, 93.014391, 50.196196, 47.789680
10129, 93.469977, 50.200675, 47.450185
10130, 93.240496, 50.197210, 47.620204
10131, 92.781752, 49.816760, 47.948910
10132, 92.796075, 50.198388, 47.962463
10133, 91.394788, 49.028254, 49.171763
10134, 91.450113, 49.377500, 49.206886
10135, 91.274924, 49.001980, 49.409244
10136, 91.311601, 49.345092, 49.524014
10137, 91.469324, 49.784198, 49.142070
10138, 91.487090, 50.200684, 49.198445
10139, 91.629341, 49.925370, 48.979672
10140, 91.650883, 50.202744, 49.005773
10141, 91.318707, 49.779671, 49.476920
10142, 91.312231, 50.192627, 49.462239
10143, 91.227414, 49.419556, 49.837325
10144, 91.264539, 49.799506, 49.815059
10145, 91.304216, 50.196371, 49.796166
10146, 91.304779, 49.363798, 50.134135
10147, 91.327319, 49.789330, 50.122997
10148, 91.368132, 50.195613, 50.106610
10149, 91.096389, 51.231295, 49.578221
10150, 91.169428, 51.621510, 49.304449
10151, 91.071708, 51.886321, 49.200895
10152, 91.079343, 51.498058, 49.509001
10153, 90.813982, 52.060693, 49.625499
10154, 90.961954, 51.877044, 49.505137
10155, 91.115503, 51.233073, 49.807928
10156, 91.172361, 51.253988, 50.013879
10157, 91.019302, 51.499973, 49.828197
10158, 90.778486, 52.040955, 49.825593
10159, 90.900785, 51.812987, 49.833896
10160, 91.107936, 51.508136, 50.119433
10161, 90.830326, 52.066131, 50.010478
10162, 90.955153, 51.877435, 50.138653
10163, 90.402339, 52.823177, 49.631276
10164, 90.765552, 52.376155, 49.287601
10165, 90.906889, 52.209774, 49.159288
10166, 90.665781, 52.627159, 49.183588
10167, 90.835030, 52.496332, 49.048057
10168, 90.726038, 52.293166, 49.520413
10169, 90.868934, 52.123446, 49.387314
10170, 90.548130, 52.631760, 49.509502
10171, 90.465550, 52.892926, 49.138014
10172, 90.434954, 52.854832, 49.391704
10173, 90.345989, 52.785223, 49.848374
10174, 90.393092, 52.814765, 50.142599
10175, 90.638314, 52.269843, 49.804061
10176, 90.486551, 52.546395, 49.813412
10177, 90.731000, 52.288822, 50.116362
10178, 90.552924, 52.572178, 50.140399
10179, 90.210446, 53.013386, 49.844443
10180, 92.542868, 50.582296, 48.108475
10181, 92.355622, 51.156957, 48.174988
10182, 92.495952, 50.992680, 48.087151
10183, 91.916091, 50.777421, 48.593996
10184, 91.917686, 51.097500, 48.552288
10185, 91.596908, 50.775132, 48.965014
10186, 91.766369, 50.626699, 48.788790
10187, 91.523317, 51.072928, 48.942776
10188, 91.703377, 51.055904, 48.739972
10189, 92.091816, 50.618489, 48.464437
10190, 92.329314, 50.564752, 48.280297
10191, 92.147107, 51.041571, 48.364034
10192, 92.330872, 50.865925, 48.236114
10193, 91.927846, 50.477284, 48.624244
10194, 92.987553, 50.568492, 47.767001
10195, 93.431343, 50.588314, 47.438610
10196, 93.207602, 50.572727, 47.603054
10197, 92.958665, 50.928075, 47.749547
10198, 93.377159, 50.961984, 47.437147
10199, 93.167731, 50.932281, 47.593517
10200, 92.766643, 50.573138, 47.932357
10201, 92.739567, 50.939728, 47.911324
10202, 91.497840, 50.627752, 49.167146
10203, 91.657150, 50.490775, 49.000393
10204, 91.370821, 51.033228, 49.174700
10205, 91.305777, 50.599842, 49.449895
10206, 91.208728, 51.020830, 49.458701
10207, 91.294594, 51.443819, 49.150149
10208, 91.187848, 51.763276, 49.075254
10209, 91.197020, 51.308149, 49.372434
10210, 91.312523, 50.594552, 49.786686
10211, 91.215701, 50.964348, 49.798119
10212, 91.354261, 50.606763, 50.108351
10213, 91.272969, 51.030602, 50.122455
10214, 91.283011, 49.086532, 50.247225
10215, 91.333360, 49.006061, 50.485436
10216, 91.391756, 49.396077, 50.441736
10217, 91.476962, 49.046079, 50.768892
10218, 91.506675, 49.419634, 50.726781
10219, 91.410372, 49.797361, 50.421682
10220, 91.430509, 50.197030, 50.407486
10221, 91.536373, 49.806424, 50.698259
10222, 91.569529, 50.198281, 50.673807
10223, 91.594973, 48.801826, 51.007053
10224, 91.659226, 49.071604, 50.977737
10225, 91.673383, 49.430267, 50.958964
10226, 91.701388, 49.808338, 50.936726
10227, 91.736526, 50.197726, 50.915598
10228, 91.149533, 51.596080, 50.361438
10229, 91.049154, 51.862054, 50.470585
10230, 91.127939, 51.968275, 50.712989
10231, 90.464945, 52.837858, 50.368592
10232, 90.760755, 52.394818, 50.365408
10233, 90.863732, 52.129810, 50.256891
10234, 90.888976, 52.215381, 50.512678
10235, 90.631189, 52.657894, 50.476812
10236, 91.058552, 52.244874, 50.823883
10237, 90.681654, 52.739386, 50.742675
10238, 90.788691, 52.480991, 50.621511
10239, 90.890948, 52.591530, 50.863224
10240, 90.506355, 52.886942, 50.619721
10241, 90.802641, 52.845590, 50.980848
10242, 91.398289, 50.597604, 50.416124
10243, 91.322947, 51.001332, 50.444809
10244, 91.541969, 50.598353, 50.690126
10245, 91.486658, 50.999088, 50.728798
10246, 91.221526, 51.316330, 50.245945
10247, 91.251279, 51.401286, 50.494871
10248, 91.448184, 51.420846, 50.797890
10249, 91.197046, 51.689568, 50.600250
10250, 91.300751, 51.813731, 50.816651
10251, 91.702553, 50.597313, 50.945373
10252, 91.650691, 50.981202, 50.959475
10253, 91.598866, 51.290116, 50.976070
10254, 91.237392, 52.089269, 50.934239
10255, 94.050345, 48.225578, 53.209356
10256, 94.120312, 48.740581, 53.161791
10257, 94.104531, 51.276999, 53.145487
10258, 94.025332, 51.784637, 53.195646
10259, 93.979914, 49.746188, 47.047250
10260, 93.894321, 49.355566, 47.094232
10261, 93.840360, 48.975573, 47.085898
10262, 94.210023, 48.775160, 46.769570
10263, 94.274883, 49.570665, 46.815140
10264, 94.077076, 49.314673, 46.959093
10265, 94.042864, 49.020387, 46.939405
10266, 93.980447, 50.249230, 47.048146
10267, 93.831772, 51.015052, 47.085435
10268, 93.892496, 50.640472, 47.097482
10269, 94.274258, 50.424507, 46.818153
10270, 94.190812, 51.207404, 46.767778
10271, 94.030072, 50.969579, 46.937198
10272, 94.071811, 50.678892, 46.958619
10273, 94.618127, 47.991291, 46.270627
10274, 94.740790, 48.781927, 46.352889
10275, 94.782449, 49.590637, 46.403184
10276, 94.778586, 50.414408, 46.393183
10277, 94.062397, 47.367334, 46.507553
10278, 94.147103, 47.979235, 46.662602
10279, 93.601534, 48.992339, 47.265423
10280, 93.663116, 49.381734, 47.262498
10281, 93.707559, 49.781811, 47.261914
10282, 95.510264, 47.952925, 45.476118
10283, 96.329835, 47.925547, 44.681717
10284, 95.935510, 47.993161, 45.112065
10285, 95.606304, 48.487882, 45.543432
10286, 96.371399, 48.488861, 44.814619
10287, 96.018882, 48.783741, 45.221143
10288, 95.103870, 48.015588, 45.857364
10289, 95.294532, 48.782105, 45.891366
10290, 96.065496, 49.621465, 45.299888
10291, 95.655157, 50.742871, 45.642743
10292, 96.011820, 50.430751, 45.356437
10293, 95.282369, 49.600912, 45.985848
10294, 95.674111, 49.052775, 45.604030
10295, 95.682801, 49.606979, 45.646342
10296, 95.322637, 50.428792, 45.943894
10297, 95.676663, 50.153303, 45.658579
10298, 96.744063, 48.776016, 44.505767
10299, 96.884821, 49.597912, 44.445482
10300, 96.424481, 49.073280, 44.887830
10301, 96.476378, 49.665154, 44.897944
10302, 96.887082, 50.435395, 44.436910
10303, 96.471716, 50.374306, 44.900131
10304, 94.703398, 51.209091, 46.369222
10305, 94.573685, 51.970231, 46.259487
10306, 94.115436, 51.976439, 46.645300
10307, 93.667606, 50.616275, 47.263704
10308, 93.707961, 50.214253, 47.262728
10309, 93.602778, 51.003179, 47.268535
10310, 94.038797, 52.560118, 46.493319
10311, 95.626770, 51.301382, 45.566357
10312, 96.415509, 51.537546, 44.764843
10313, 96.105290, 51.248366, 45.139245
10314, 95.520222, 51.981065, 45.488090
10315, 96.363679, 52.092732, 44.655808
10316, 95.965235, 52.000649, 45.077521
10317, 95.194872, 51.226253, 45.957631
10318, 95.061880, 51.950271, 45.873509
10319, 96.753940, 51.249154, 44.465668
10320, 96.456260, 50.961472, 44.853970
10321, 97.648232, 45.084058, 40.810748
10322, 97.872704, 44.834804, 39.635633
10323, 98.325235, 45.820925, 40.168010
10324, 99.056433, 47.436190, 40.101279
10325, 97.316982, 45.505723, 41.999079
10326, 97.616372, 46.662691, 42.489405
10327, 98.052934, 46.231621, 41.370588
10328, 98.324203, 47.467043, 41.843784
10329, 99.304185, 49.169647, 40.440826
10330, 99.283398, 50.864775, 40.437635
10331, 98.650189, 49.163959, 41.905055
10332, 98.606383, 50.850983, 41.873789
10333, 99.533095, 48.131749, 39.129487
10334, 99.710985, 49.266031, 39.080475
10335, 99.700943, 50.791031, 39.078618
10336, 95.048612, 44.069500, 43.459960
10337, 96.023496, 44.577269, 42.878610
10338, 96.730899, 48.039834, 44.287692
10339, 96.680502, 47.427394, 44.105293
10340, 95.015342, 56.002098, 43.489309
10341, 93.391715, 56.097865, 44.785596
10342, 94.453343, 55.636678, 44.459527
10343, 99.005196, 52.596077, 40.111274
10344, 97.621846, 54.918335, 40.782521
10345, 98.307826, 54.191951, 40.173534
10346, 97.564128, 53.339627, 42.436000
10347, 98.260549, 52.540770, 41.800448
10348, 97.273450, 54.495027, 41.957440
10349, 98.005365, 53.773226, 41.343803
10350, 99.495145, 51.919788, 39.147343
10351, 97.893065, 55.180295, 39.633103
10352, 96.748174, 51.981677, 44.257931
10353, 96.689051, 52.590244, 44.072606
10354, 96.005234, 55.461981, 42.878298
10355, 94.388984, 44.361267, 44.451114
10356, 95.012838, 57.673853, 36.303125
*ELEMENT, TYPE=C3D8, ELSET=EB1
1, 1, 2, 3, 4, 5, 6, 7, 8
2, 9, 10, 11, 2, 12, 13, 14, 6
3, 10, 15, 16, 11, 13, 17, 18, 14
4, 2, 11, 19, 3, 6, 14, 20, 7
5, 11, 16, 21, 19, 14, 18, 22, 20
6, 23, 24, 25, 26, 27, 28, 29, 30
7, 31, 32, 13, 12, 24, 33, 34, 25
8, 32, 35, 17, 13, 33, 36, 37, 34
9, 24, 33, 34, 25, 28, 38, 39, 29
10, 33, 36, 37, 34, 38, 40, 41, 39
11, 42, 12, 6, 5, 26, 25, 43, 44
12, 45, 5, 8, 46, 47, 44, 48, 49
13, 5, 6, 7, 8, 44, 43, 50, 48
14, 51, 26, 44, 47, 52, 30, 53, 54
15, 26, 25, 43, 44, 30, 29, 55, 53
16, 47, 44, 48, 49, 54, 53, 56, 57
17, 44, 43, 50, 48, 53, 55, 58, 56
18, 12, 13, 14, 6, 25, 34, 59, 43
19, 13, 17, 18, 14, 34, 37, 60, 59
20, 6, 14, 20, 7, 43, 59, 61, 50
21, 14, 18, 22, 20, 59, 60, 62, 61
22, 25, 34, 59, 43, 29, 39, 63, 55
23, 34, 37, 60, 59, 39, 41, 64, 63
24, 43, 59, 61, 50, 55, 63, 65, 58
25, 59, 60, 62, 61, 63, 64, 66, 65
26, 15, 67, 68, 16, 17, 69, 70, 18
27, 16, 68, 71, 21, 18, 70, 72, 22
28, 68, 73, 74, 71, 70, 75, 76, 72
29, 35, 77, 69, 17, 36, 78, 79, 37
30, 36, 78, 79, 37, 40, 80, 81, 41
31, 17, 69, 70, 18, 37, 79, 82, 60
32, 69, 83, 75, 70, 79, 84, 85, 82
33, 18, 70, 72, 22, 60, 82, 86, 62
34, 70, 75, 76, 72, 82, 85, 87, 86
35, 37, 79, 82, 60, 41, 81, 88, 64
36, 79, 84, 85, 82, 81, 89, 90, 88
37, 60, 82, 86, 62, 64, 88, 91, 66
38, 82, 85, 87, 86, 88, 90, 92, 91
39, 85, 93, 94, 87, 90, 95, 96, 92
40, 28, 38, 39, 29, 97, 98, 99, 100
41, 38, 40, 41, 39, 98, 101, 102, 99
42, 30, 29, 55, 53, 103, 100, 104, 105
43, 54, 53, 56, 57, 106, 105, 107, 108
44, 53, 55, 58, 56, 105, 104, 109, 107
45, 110, 111, 112, 113, 114, 115, 116, 117
46, 105, 118, 111, 110, 119, 120, 115, 114
47, 105, 118, 121, 103, 110, 111, 112, 113
48, 29, 39, 63, 55, 100, 99, 122, 104
49, 39, 41, 64, 63, 99, 102, 123, 122
50, 55, 63, 65, 58, 104, 122, 124, 109
51, 63, 64, 66, 65, 122, 123, 125, 124
52, 126, 127, 100, 128, 129, 130, 131, 132
53, 133, 126, 128, 134, 135, 129, 132, 136
54, 137, 133, 134, 99, 138, 135, 136, 139
55, 140, 141, 127, 126, 142, 143, 130, 129
56, 144, 140, 126, 133, 145, 142, 129, 135
57, 146, 144, 133, 137, 147, 145, 135, 138
58, 148, 104, 141, 140, 149, 150, 143, 142
59, 151, 148, 140, 144, 152, 149, 142, 145
60, 122, 151, 144, 146, 153, 152, 145, 147
61, 148, 104, 100, 128, 140, 141, 127, 126
62, 122, 151, 134, 99, 146, 144, 133, 137
63, 151, 148, 128, 134, 144, 140, 126, 133
64, 122, 104, 100, 99, 151, 148, 128, 134
65, 127, 113, 103, 100, 130, 117, 154, 131
66, 141, 110, 113, 127, 143, 114, 117, 130
67, 104, 105, 103, 100, 141, 110, 113, 127
68, 104, 105, 110, 141, 150, 119, 114, 143
69, 155, 128, 100, 97, 156, 132, 131, 157
70, 158, 134, 128, 155, 159, 136, 132, 156
71, 98, 99, 100, 97, 158, 134, 128, 155
72, 98, 99, 134, 158, 160, 139, 136, 159
73, 40, 80, 81, 41, 101, 161, 162, 102
74, 41, 81, 88, 64, 102, 162, 163, 123
75, 81, 89, 90, 88, 162, 164, 165, 163
76, 64, 88, 91, 66, 123, 163, 166, 125
77, 88, 90, 92, 91, 163, 165, 167, 166
78, 168, 169, 102, 170, 171, 172, 173, 174
79, 175, 168, 170, 176, 177, 171, 174, 178
80, 179, 175, 176, 162, 180, 177, 178, 181
81, 182, 183, 169, 168, 184, 185, 172, 171
82, 186, 182, 168, 175, 187, 184, 171, 177
83, 188, 186, 175, 179, 189, 187, 177, 180
84, 190, 123, 183, 182, 191, 192, 185, 184
85, 193, 190, 182, 186, 194, 191, 184, 187
86, 163, 193, 186, 188, 195, 194, 187, 189
87, 190, 123, 102, 170, 182, 183, 169, 168
88, 163, 193, 176, 162, 188, 186, 175, 179
89, 193, 190, 170, 176, 186, 182, 168, 175
90, 163, 123, 102, 162, 193, 190, 170, 176
91, 169, 137, 99, 102, 172, 138, 139, 173
92, 183, 146, 137, 169, 185, 147, 138, 172
93, 123, 122, 99, 102, 183, 146, 137, 169
94, 123, 122, 146, 183, 192, 153, 147, 185
95, 196, 170, 102, 101, 197, 174, 173, 198
96, 199, 176, 170, 196, 200, 178, 174, 197
97, 161, 162, 102, 101, 199, 176, 170, 196
98, 201, 179, 162, 164, 202, 180, 181, 203
99, 204, 188, 179, 201, 205, 189, 180, 202
100, 165, 163, 188, 204, 206, 195, 189, 205
101, 165, 163, 162, 164, 204, 188, 179, 201
102, 165, 204, 201, 164, 206, 205, 202, 203
103, 89, 207, 95, 90, 164, 208, 209, 165
104, 209, 210, 211, 212, 213, 214, 215, 216
105, 209, 210, 217, 95, 212, 211, 218, 219
106, 90, 95, 96, 92, 165, 209, 220, 167
107, 164, 208, 209, 165, 203, 221, 222, 206
108, 165, 209, 220, 167, 206, 222, 223, 224
109, 203, 221, 222, 206, 225, 226, 227, 228
110, 181, 180, 229, 230, 203, 202, 231, 232
111, 180, 189, 233, 229, 202, 205, 234, 231
112, 189, 195, 235, 233, 205, 206, 236, 234
113, 230, 229, 237, 238, 232, 231, 239, 240
114, 229, 233, 241, 237, 231, 234, 242, 239
115, 233, 235, 243, 241, 234, 236, 244, 242
116, 238, 237, 245, 246, 240, 239, 247, 225
117, 237, 241, 248, 245, 239, 242, 249, 247
118, 241, 243, 250, 248, 242, 244, 228, 249
119, 232, 231, 239, 240, 203, 202, 247, 225
120, 234, 236, 244, 242, 205, 206, 228, 249
121, 231, 234, 242, 239, 202, 205, 249, 247
122, 202, 205, 249, 247, 203, 206, 228, 225
123, 251, 252, 253, 254, 255, 256, 257, 258
124, 259, 251, 254, 222, 260, 255, 258, 261
125, 262, 263, 252, 251, 264, 265, 256, 255
126, 266, 262, 251, 259, 267, 264, 255, 260
127, 268, 226, 269, 263, 270, 271, 272, 265
128, 273, 268, 263, 262, 274, 270, 265, 264
129, 227, 273, 262, 266, 275, 274, 264, 267
130, 268, 226, 221, 253, 263, 269, 276, 252
131, 227, 273, 254, 222, 266, 262, 251, 259
132, 273, 268, 253, 254, 262, 263, 252, 251
133, 227, 226, 221, 222, 273, 268, 253, 254
134, 210, 254, 253, 277, 214, 258, 257, 278
135, 209, 222, 221, 208, 210, 254, 253, 277
136, 209, 222, 254, 210, 213, 261, 258, 214
137, 206, 222, 223, 224, 228, 227, 279, 280
138, 225, 226, 227, 228, 281, 282, 283, 284
139, 228, 227, 279, 280, 284, 283, 285, 286
140, 287, 288, 289, 290, 291, 292, 293, 294
141, 295, 296, 297, 288, 298, 299, 300, 292
142, 296, 301, 302, 297, 299, 303, 304, 300
143, 288, 297, 305, 289, 292, 300, 306, 293
144, 297, 302, 307, 305, 300, 304, 308, 306
145, 309, 310, 299, 298, 311, 312, 313, 314
146, 310, 315, 303, 299, 312, 316, 317, 313
147, 318, 298, 292, 291, 319, 314, 320, 321
148, 291, 292, 293, 294, 321, 320, 322, 323
149, 324, 321, 323, 325, 326, 327, 328, 329
150, 298, 299, 300, 292, 314, 313, 330, 320
151, 299, 303, 304, 300, 313, 317, 331, 330
152, 292, 300, 306, 293, 320, 330, 332, 322
153, 300, 304, 308, 306, 330, 331, 333, 332
154, 334, 335, 314, 336, 337, 338, 339, 340
155, 341, 334, 336, 342, 343, 337, 340, 344
156, 345, 341, 342, 313, 346, 343, 344, 347
157, 348, 349, 335, 334, 350, 351, 338, 337
158, 352, 348, 334, 341, 353, 350, 337, 343
159, 354, 352, 341, 345, 355, 353, 343, 346
160, 356, 320, 349, 348, 357, 358, 351, 350
161, 359, 356, 348, 352, 360, 357, 350, 353
162, 330, 359, 352, 354, 361, 360, 353, 355
163, 356, 320, 314, 336, 348, 349, 335, 334
164, 330, 359, 342, 313, 354, 352, 341, 345
165, 359, 356, 336, 342, 352, 348, 334, 341
166, 330, 320, 314, 313, 359, 356, 336, 342
167, 335, 362, 319, 314, 338, 363, 364, 339
168, 349, 365, 362, 335, 351, 366, 363, 338
169, 320, 321, 365, 349, 358, 327, 366, 351
170, 365, 321, 319, 362, 366, 327, 364, 363
171, 320, 321, 319, 314, 349, 365, 362, 335
172, 336, 314, 311, 367, 340, 339, 368, 369
173, 342, 336, 367, 370, 344, 340, 369, 371
174, 313, 342, 370, 312, 347, 344, 371, 372
175, 313, 314, 311, 312, 342, 336, 367, 370
176, 370, 367, 311, 312, 371, 369, 368, 372
177, 301, 373, 374, 302, 303, 375, 376, 304
178, 302, 374, 377, 307, 304, 376, 378, 308
179, 374, 379, 380, 377, 376, 381, 382, 378
180, 315, 383, 375, 303, 316, 384, 385, 317
181, 303, 375, 376, 304, 317, 385, 386, 331
182, 375, 387, 381, 376, 385, 388, 389, 386
183, 304, 376, 378, 308, 331, 386, 390, 333
184, 376, 381, 382, 378, 386, 389, 391, 390
185, 392, 393, 317, 394, 395, 396, 397, 398
186, 399, 392, 394, 400, 401, 395, 398, 402
187, 403, 399, 400, 385, 404, 401, 402, 405
188, 406, 407, 393, 392, 408, 409, 396, 395
189, 410, 406, 392, 399, 411, 408, 395, 401
190, 412, 410, 399, 403, 413, 411, 401, 404
191, 414, 331, 407, 406, 415, 416, 409, 408
192, 417, 414, 406, 410, 418, 415, 408, 411
193, 386, 417, 410, 412, 419, 418, 411, 413
194, 414, 331, 317, 394, 406, 407, 393, 392
195, 386, 417, 400, 385, 412, 410, 399, 403
196, 417, 414, 394, 400, 410, 406, 392, 399
197, 386, 331, 317, 385, 417, 414, 394, 400
198, 393, 345, 313, 317, 396, 346, 347, 397
199, 407, 354, 345, 393, 409, 355, 346, 396
200, 331, 330, 313, 317, 407, 354, 345, 393
201, 331, 330, 354, 407, 416, 361, 355, 409
202, 394, 317, 316, 420, 398, 397, 421, 422
203, 400, 394, 420, 423, 402, 398, 422, 424
204, 385, 400, 423, 384, 405, 402, 424, 425
205, 385, 317, 316, 384, 400, 394, 420, 423
206, 423, 420, 316, 384, 424, 422, 421, 425
207, 381, 426, 427, 382, 389, 428, 429, 391
208, 430, 431, 388, 432, 433, 434, 435, 436
209, 437, 430, 432, 438, 439, 433, 436, 440
210, 441, 442, 431, 430, 443, 444, 434, 433
211, 445, 441, 430, 437, 446, 443, 433, 439
212, 447, 389, 442, 441, 448, 449, 444, 443
213, 450, 447, 441, 445, 451, 448, 443, 446
214, 428, 450, 445, 452, 453, 451, 446, 454
215, 447, 389, 388, 432, 441, 442, 431, 430
216, 428, 450, 438, 455, 452, 445, 437, 456
217, 450, 447, 432, 438, 445, 441, 430, 437
218, 428, 389, 388, 455, 450, 447, 432, 438
219, 431, 403, 385, 388, 434, 404, 405, 435
220, 442, 412, 403, 431, 444, 413, 404, 434
221, 389, 386, 385, 388, 442, 412, 403, 431
222, 389, 386, 412, 442, 449, 419, 413, 444
223, 432, 388, 457, 458, 436, 435, 459, 460
224, 339, 340, 461, 462, 368, 369, 463, 464
225, 340, 344, 465, 461, 369, 371, 466, 463
226, 344, 347, 467, 465, 371, 372, 468, 466
227, 462, 461, 469, 470, 464, 463, 471, 472
228, 461, 465, 473, 469, 463, 466, 474, 471
229, 465, 467, 475, 473, 466, 468, 476, 474
230, 470, 469, 477, 478, 472, 471, 479, 480
231, 469, 473, 481, 477, 471, 474, 482, 479
232, 473, 475, 483, 481, 474, 476, 484, 482
233, 464, 463, 471, 472, 368, 369, 479, 480
234, 466, 468, 476, 474, 371, 372, 484, 482
235, 463, 466, 474, 471, 369, 371, 482, 479
236, 369, 371, 482, 479, 368, 372, 484, 480
237, 477, 481, 485, 486, 479, 482, 487, 488
238, 481, 483, 489, 485, 482, 484, 490, 487
239, 491, 462, 470, 492, 493, 464, 472, 494
240, 495, 364, 327, 326, 496, 497, 498, 499
241, 500, 501, 502, 503, 504, 505, 499, 506
242, 507, 508, 505, 504, 509, 326, 499, 506
243, 510, 491, 364, 363, 511, 462, 339, 338
244, 512, 510, 363, 366, 513, 511, 338, 351
245, 514, 512, 366, 327, 515, 513, 351, 358
246, 516, 492, 491, 510, 517, 470, 462, 511
247, 518, 516, 510, 512, 519, 517, 511, 513
248, 520, 518, 512, 514, 521, 519, 513, 515
249, 522, 497, 492, 516, 523, 478, 470, 517
250, 524, 522, 516, 518, 525, 523, 517, 519
251, 498, 524, 518, 520, 526, 525, 519, 521
252, 522, 497, 364, 363, 516, 492, 491, 510
253, 498, 524, 366, 327, 520, 518, 512, 514
254, 524, 522, 363, 366, 518, 516, 510, 512
255, 498, 497, 364, 327, 524, 522, 363, 366
256, 326, 327, 328, 329, 499, 498, 527, 528
257, 496, 497, 498, 499, 529, 530, 531, 532
258, 499, 498, 527, 528, 532, 531, 533, 534
259, 529, 530, 531, 532, 535, 536, 537, 538
260, 539, 540, 541, 542, 543, 544, 545, 546
261, 540, 547, 548, 541, 544, 532, 549, 545
262, 542, 541, 550, 551, 546, 545, 552, 553
263, 541, 548, 554, 550, 545, 549, 555, 552
264, 556, 551, 557, 558, 559, 553, 560, 535
265, 551, 550, 561, 557, 553, 552, 562, 560
266, 550, 554, 563, 561, 552, 555, 538, 562
267, 564, 546, 553, 559, 529, 543, 560, 535
268, 545, 549, 555, 552, 544, 532, 538, 562
269, 546, 545, 552, 553, 543, 544, 562, 560
270, 543, 544, 562, 560, 529, 532, 538, 535
271, 539, 565, 503, 540, 543, 566, 506, 544
272, 543, 566, 506, 544, 529, 496, 499, 532
273, 540, 503, 502, 547, 544, 506, 499, 532
274, 567, 568, 530, 569, 570, 571, 572, 573
275, 574, 567, 569, 575, 576, 570, 573, 577
276, 578, 574, 575, 531, 579, 576, 577, 580
277, 581, 582, 568, 567, 583, 584, 571, 570
278, 585, 581, 567, 574, 586, 583, 570, 576
279, 587, 585, 574, 578, 588, 586, 576, 579
280, 589, 536, 582, 581, 590, 591, 584, 583
281, 592, 589, 581, 585, 593, 590, 583, 586
282, 537, 592, 585, 587, 594, 593, 586, 588
283, 589, 536, 530, 569, 581, 582, 568, 567
284, 537, 592, 575, 531, 587, 585, 574, 578
285, 592, 589, 569, 575, 585, 581, 567, 574
286, 537, 536, 530, 531, 592, 589, 569, 575
287, 522, 569, 530, 497, 523, 573, 572, 478
288, 524, 575, 569, 522, 525, 577, 573, 523
289, 498, 531, 530, 497, 524, 575, 569, 522
290, 498, 531, 575, 524, 526, 580, 577, 525
291, 532, 531, 533, 534, 538, 537, 595, 596
292, 535, 536, 537, 538, 597, 598, 599, 600
293, 538, 537, 595, 596, 600, 599, 601, 602
294, 397, 398, 603, 604, 421, 422, 605, 606
295, 398, 402, 607, 603, 422, 424, 608, 605
296, 402, 405, 609, 607, 424, 425, 610, 608
297, 604, 603, 611, 612, 606, 605, 613, 614
298, 603, 607, 615, 611, 605, 608, 616, 613
299, 607, 609, 617, 615, 608, 610, 618, 616
300, 612, 611, 619, 620, 614, 613, 621, 622
301, 611, 615, 623, 619, 613, 616, 624, 621
302, 615, 617, 625, 623, 616, 618, 626, 624
303, 606, 605, 613, 614, 421, 422, 621, 622
304, 608, 610, 618, 616, 424, 425, 626, 624
305, 605, 608, 616, 613, 422, 424, 624, 621
306, 422, 424, 624, 621, 421, 425, 626, 622
307, 347, 397, 604, 467, 372, 421, 606, 468
308, 467, 604, 612, 475, 468, 606, 614, 476
309, 468, 606, 614, 476, 372, 421, 622, 484
310, 475, 612, 620, 483, 476, 614, 622, 484
311, 620, 619, 627, 628, 622, 621, 629, 630
312, 619, 623, 631, 627, 621, 624, 632, 629
313, 623, 625, 633, 631, 624, 626, 634, 632
314, 435, 436, 635, 636, 459, 460, 637, 638
315, 636, 635, 639, 640, 638, 637, 641, 642
316, 405, 435, 636, 609, 425, 459, 638, 610
317, 609, 636, 640, 617, 610, 638, 642, 618
318, 3, 19, 643, 644, 7, 20, 645, 646
319, 19, 21, 647, 643, 20, 22, 648, 645
320, 8, 7, 646, 649, 48, 50, 650, 651
321, 49, 48, 651, 652, 57, 56, 653, 654
322, 48, 50, 650, 651, 56, 58, 655, 653
323, 651, 650, 656, 657, 653, 655, 658, 659
324, 7, 20, 645, 646, 50, 61, 660, 650
325, 20, 22, 648, 645, 61, 62, 661, 660
326, 646, 645, 662, 663, 650, 660, 664, 656
327, 645, 648, 665, 662, 660, 661, 666, 664
328, 50, 61, 660, 650, 58, 65, 667, 655
329, 61, 62, 661, 660, 65, 66, 668, 667
330, 650, 660, 664, 656, 655, 667, 669, 658
331, 660, 661, 666, 664, 667, 668, 670, 669
332, 21, 71, 671, 647, 22, 72, 672, 648
333, 22, 72, 672, 648, 62, 86, 673, 661
334, 72, 76, 674, 672, 86, 87, 675, 673
335, 648, 672, 676, 665, 661, 673, 677, 666
336, 62, 86, 673, 661, 66, 91, 678, 668
337, 86, 87, 675, 673, 91, 92, 679, 678
338, 661, 673, 677, 666, 668, 678, 680, 670
339, 56, 58, 655, 653, 107, 109, 681, 682
340, 683, 684, 685, 107, 686, 687, 688, 689
341, 690, 691, 684, 683, 692, 693, 687, 686
342, 682, 694, 685, 107, 690, 691, 684, 683
343, 105, 107, 108, 106, 118, 685, 695, 696
344, 105, 107, 685, 118, 119, 689, 688, 120
345, 58, 65, 667, 655, 109, 124, 697, 681
346, 65, 66, 668, 667, 124, 125, 698, 697
347, 655, 667, 669, 658, 681, 697, 699, 700
348, 667, 668, 670, 669, 697, 698, 701, 699
349, 702, 703, 109, 704, 705, 706, 707, 708
350, 709, 702, 704, 710, 711, 705, 708, 712
351, 713, 709, 710, 124, 714, 711, 712, 715
352, 716, 717, 703, 702, 718, 719, 706, 705
353, 720, 716, 702, 709, 721, 718, 705, 711
354, 722, 720, 709, 713, 723, 721, 711, 714
355, 724, 681, 717, 716, 725, 726, 719, 718
356, 727, 724, 716, 720, 728, 725, 718, 721
357, 697, 727, 720, 722, 729, 728, 721, 723
358, 724, 681, 109, 704, 716, 717, 703, 702
359, 697, 727, 710, 124, 722, 720, 709, 713
360, 727, 724, 704, 710, 720, 716, 702, 709
361, 697, 681, 109, 124, 727, 724, 704, 710
362, 703, 683, 107, 109, 706, 686, 689, 707
363, 717, 690, 683, 703, 719, 692, 686, 706
364, 681, 682, 107, 109, 717, 690, 683, 703
365, 681, 682, 690, 717, 726, 730, 692, 719
366, 148, 704, 109, 104, 149, 708, 707, 150
367, 151, 710, 704, 148, 152, 712, 708, 149
368, 122, 124, 109, 104, 151, 710, 704, 148
369, 122, 124, 710, 151, 153, 715, 712, 152
370, 724, 731, 700, 681, 725, 732, 733, 726
371, 727, 734, 731, 724, 728, 735, 732, 725
372, 697, 699, 700, 681, 727, 734, 731, 724
373, 697, 699, 734, 727, 729, 736, 735, 728
374, 66, 91, 678, 668, 125, 166, 737, 698
375, 91, 92, 679, 678, 166, 167, 738, 737
376, 668, 678, 680, 670, 698, 737, 739, 701
377, 740, 741, 125, 742, 743, 744, 745, 746
378, 747, 740, 742, 748, 749, 743, 746, 750
379, 751, 747, 748, 166, 752, 749, 750, 753
380, 754, 755, 741, 740, 756, 757, 744, 743
381, 758, 754, 740, 747, 759, 756, 743, 749
382, 760, 758, 747, 751, 761, 759, 749, 752
383, 762, 698, 755, 754, 763, 764, 757, 756
384, 765, 762, 754, 758, 766, 763, 756, 759
385, 737, 765, 758, 760, 767, 766, 759, 761
386, 762, 698, 125, 742, 754, 755, 741, 740
387, 737, 765, 748, 166, 760, 758, 747, 751
388, 765, 762, 742, 748, 758, 754, 740, 747
389, 737, 698, 125, 166, 765, 762, 742, 748
390, 741, 713, 124, 125, 744, 714, 715, 745
391, 755, 722, 713, 741, 757, 723, 714, 744
392, 698, 697, 124, 125, 755, 722, 713, 741
393, 698, 697, 722, 755, 764, 729, 723, 757
394, 190, 742, 125, 123, 191, 746, 745, 192
395, 193, 748, 742, 190, 194, 750, 746, 191
396, 163, 166, 125, 123, 193, 748, 742, 190
397, 163, 166, 748, 193, 195, 753, 750, 194
398, 768, 751, 166, 167, 769, 752, 753, 224
399, 770, 760, 751, 768, 771, 761, 752, 769
400, 738, 737, 760, 770, 772, 767, 761, 771
401, 738, 737, 166, 167, 770, 760, 751, 768
402, 738, 770, 768, 167, 772, 771, 769, 224
403, 92, 96, 773, 679, 167, 220, 774, 738
404, 775, 220, 776, 777, 778, 779, 780, 781
405, 775, 220, 96, 782, 777, 776, 783, 784
406, 220, 209, 95, 96, 776, 212, 219, 783
407, 220, 209, 212, 776, 779, 213, 216, 780
408, 167, 220, 774, 738, 224, 223, 785, 772
409, 762, 786, 701, 698, 763, 787, 788, 764
410, 765, 789, 786, 762, 766, 790, 787, 763
411, 737, 739, 701, 698, 765, 789, 786, 762
412, 224, 223, 785, 772, 280, 279, 791, 792
413, 753, 752, 793, 794, 224, 769, 795, 796
414, 752, 761, 797, 793, 769, 771, 798, 795
415, 761, 767, 799, 797, 771, 772, 800, 798
416, 794, 793, 801, 802, 796, 795, 803, 804
417, 793, 797, 805, 801, 795, 798, 806, 803
418, 797, 799, 807, 805, 798, 800, 808, 806
419, 802, 801, 809, 810, 804, 803, 811, 280
420, 801, 805, 812, 809, 803, 806, 813, 811
421, 805, 807, 814, 812, 806, 808, 792, 813
422, 796, 795, 803, 804, 224, 769, 811, 280
423, 798, 800, 808, 806, 771, 772, 792, 813
424, 795, 798, 806, 803, 769, 771, 813, 811
425, 769, 771, 813, 811, 224, 772, 792, 280
426, 195, 753, 794, 235, 206, 224, 796, 236
427, 235, 794, 802, 243, 236, 796, 804, 244
428, 236, 796, 804, 244, 206, 224, 280, 228
429, 243, 802, 810, 250, 244, 804, 280, 228
430, 815, 816, 223, 817, 818, 819, 820, 821
431, 822, 815, 817, 823, 824, 818, 821, 825
432, 826, 827, 816, 815, 828, 829, 819, 818
433, 830, 826, 815, 822, 831, 828, 818, 824
434, 832, 279, 827, 826, 833, 834, 829, 828
435, 835, 832, 826, 830, 836, 833, 828, 831
436, 791, 835, 830, 837, 838, 836, 831, 839
437, 832, 279, 223, 817, 826, 827, 816, 815
438, 791, 835, 823, 785, 837, 830, 822, 840
439, 835, 832, 817, 823, 830, 826, 815, 822
440, 791, 279, 223, 785, 835, 832, 817, 823
441, 816, 259, 222, 223, 819, 260, 261, 820
442, 827, 266, 259, 816, 829, 267, 260, 819
443, 279, 227, 222, 223, 827, 266, 259, 816
444, 279, 227, 266, 827, 834, 275, 267, 829
445, 775, 817, 223, 220, 778, 821, 820, 779
446, 841, 823, 817, 775, 842, 825, 821, 778
447, 774, 785, 223, 220, 841, 823, 817, 775
448, 280, 279, 791, 792, 286, 285, 843, 844
449, 289, 305, 845, 846, 293, 306, 847, 848
450, 305, 307, 849, 845, 306, 308, 850, 847
451, 294, 293, 848, 851, 323, 322, 852, 853
452, 293, 306, 847, 848, 322, 332, 854, 852
453, 306, 308, 850, 847, 332, 333, 855, 854
454, 848, 847, 856, 857, 852, 854, 858, 859
455, 847, 850, 860, 856, 854, 855, 861, 858
456, 862, 863, 322, 864, 865, 866, 867, 868
457, 869, 862, 864, 870, 871, 865, 868, 872
458, 873, 869, 870, 332, 874, 871, 872, 875
459, 876, 877, 863, 862, 878, 879, 866, 865
460, 880, 876, 862, 869, 881, 878, 865, 871
461, 882, 880, 869, 873, 883, 881, 871, 874
462, 884, 852, 877, 876, 885, 886, 879, 878
463, 887, 884, 876, 880, 888, 885, 878, 881
464, 854, 887, 880, 882, 889, 888, 881, 883
465, 884, 852, 322, 864, 876, 877, 863, 862
466, 854, 887, 870, 332, 882, 880, 869, 873
467, 887, 884, 864, 870, 880, 876, 862, 869
468, 854, 852, 322, 332, 887, 884, 864, 870
469, 356, 864, 322, 320, 357, 868, 867, 358
470, 359, 870, 864, 356, 360, 872, 868, 357
471, 330, 332, 322, 320, 359, 870, 864, 356
472, 330, 332, 870, 359, 361, 875, 872, 360
473, 863, 890, 323, 322, 866, 891, 328, 867
474, 877, 892, 890, 863, 879, 893, 891, 866
475, 852, 853, 892, 877, 886, 894, 893, 879
476, 892, 853, 323, 890, 893, 894, 328, 891
477, 852, 853, 323, 322, 877, 892, 890, 863
478, 884, 895, 859, 852, 885, 896, 897, 886
479, 887, 898, 895, 884, 888, 899, 896, 885
480, 854, 858, 898, 887, 889, 900, 899, 888
481, 854, 858, 859, 852, 887, 898, 895, 884
482, 898, 858, 859, 895, 899, 900, 897, 896
483, 307, 377, 901, 849, 308, 378, 902, 850
484, 308, 378, 902, 850, 333, 390, 903, 855
485, 378, 382, 904, 902, 390, 391, 905, 903
486, 850, 902, 906, 860, 855, 903, 907, 861
487, 908, 909, 333, 910, 911, 912, 913, 914
488, 915, 908, 910, 916, 917, 911, 914, 918
489, 919, 915, 916, 390, 920, 917, 918, 921
490, 922, 923, 909, 908, 924, 925, 912, 911
491, 926, 922, 908, 915, 927, 924, 911, 917
492, 928, 926, 915, 919, 929, 927, 917, 920
493, 930, 855, 923, 922, 931, 932, 925, 924
494, 933, 930, 922, 926, 934, 931, 924, 927
495, 903, 933, 926, 928, 935, 934, 927, 929
496, 930, 855, 333, 910, 922, 923, 909, 908
497, 903, 933, 916, 390, 928, 926, 915, 919
498, 933, 930, 910, 916, 926, 922, 908, 915
499, 903, 855, 333, 390, 933, 930, 910, 916
500, 909, 873, 332, 333, 912, 874, 875, 913
501, 923, 882, 873, 909, 925, 883, 874, 912
502, 855, 854, 332, 333, 923, 882, 873, 909
503, 855, 854, 882, 923, 932, 889, 883, 925
504, 414, 910, 333, 331, 415, 914, 913, 416
505, 417, 916, 910, 414, 418, 918, 914, 415
506, 386, 390, 333, 331, 417, 916, 910, 414
507, 386, 390, 916, 417, 419, 921, 918, 418
508, 930, 936, 861, 855, 931, 937, 938, 932
509, 933, 939, 936, 930, 934, 940, 937, 931
510, 903, 907, 939, 933, 935, 941, 940, 934
511, 903, 907, 861, 855, 933, 939, 936, 930
512, 939, 907, 861, 936, 940, 941, 938, 937
513, 942, 943, 391, 944, 945, 946, 947, 948
514, 949, 942, 944, 950, 951, 945, 948, 952
515, 953, 949, 950, 429, 954, 951, 952, 955
516, 956, 957, 943, 942, 958, 959, 946, 945
517, 960, 956, 942, 949, 961, 958, 945, 951
518, 962, 905, 957, 956, 963, 964, 959, 958
519, 965, 962, 956, 960, 966, 963, 958, 961
520, 962, 905, 391, 944, 956, 957, 943, 942
521, 967, 965, 950, 429, 968, 960, 949, 953
522, 965, 962, 944, 950, 960, 956, 942, 949
523, 967, 905, 391, 429, 965, 962, 944, 950
524, 943, 919, 390, 391, 946, 920, 921, 947
525, 957, 928, 919, 943, 959, 929, 920, 946
526, 905, 903, 390, 391, 957, 928, 919, 943
527, 905, 903, 928, 957, 964, 935, 929, 959
528, 447, 944, 391, 389, 448, 948, 947, 449
529, 450, 950, 944, 447, 451, 952, 948, 448
530, 428, 429, 391, 389, 450, 950, 944, 447
531, 428, 429, 950, 450, 453, 955, 952, 451
532, 329, 328, 894, 969, 528, 527, 970, 971
533, 972, 973, 974, 975, 976, 977, 978, 528
534, 979, 980, 977, 976, 329, 981, 978, 528
535, 982, 983, 972, 501, 508, 979, 976, 505
536, 508, 979, 976, 505, 326, 329, 528, 499
537, 501, 972, 975, 502, 505, 976, 528, 499
538, 984, 985, 328, 891, 986, 987, 867, 866
539, 988, 984, 891, 893, 989, 986, 866, 879
540, 990, 988, 893, 894, 991, 989, 879, 886
541, 992, 993, 985, 984, 994, 995, 987, 986
542, 996, 992, 984, 988, 997, 994, 986, 989
543, 998, 996, 988, 990, 999, 997, 989, 991
544, 1000, 527, 993, 992, 1001, 1002, 995, 994
545, 1003, 1000, 992, 996, 1004, 1001, 994, 997
546, 970, 1003, 996, 998, 1005, 1004, 997, 999
547, 1000, 527, 328, 891, 992, 993, 985, 984
548, 970, 1003, 893, 894, 998, 996, 988, 990
549, 1003, 1000, 891, 893, 996, 992, 984, 988
550, 970, 527, 328, 894, 1003, 1000, 891, 893
551, 985, 514, 327, 328, 987, 515, 358, 867
552, 993, 520, 514, 985, 995, 521, 515, 987
553, 527, 498, 327, 328, 993, 520, 514, 985
554, 527, 498, 520, 993, 1002, 526, 521, 995
555, 1006, 998, 990, 1007, 1008, 999, 991, 1009
556, 528, 527, 970, 971, 534, 533, 1010, 1011
557, 1012, 1009, 897, 896, 1013, 991, 886, 885
558, 1014, 1012, 896, 899, 1015, 1013, 885, 888
559, 1016, 1014, 899, 900, 1017, 1015, 888, 889
560, 1018, 1008, 1009, 1012, 1019, 999, 991, 1013
561, 1020, 1018, 1012, 1014, 1021, 1019, 1013, 1015
562, 1022, 1020, 1014, 1016, 1023, 1021, 1015, 1017
563, 1024, 1025, 1008, 1018, 1026, 1005, 999, 1019
564, 1027, 1024, 1018, 1020, 1028, 1026, 1019, 1021
565, 1029, 1027, 1020, 1022, 1030, 1028, 1021, 1023
566, 1024, 1025, 897, 896, 1018, 1008, 1009, 1012
567, 1029, 1027, 899, 900, 1022, 1020, 1014, 1016
568, 1027, 1024, 896, 899, 1020, 1018, 1012, 1014
569, 1029, 1025, 897, 900, 1027, 1024, 896, 899
570, 1031, 1032, 1024, 1027, 1033, 1034, 1026, 1028
571, 1035, 1031, 1027, 1029, 1036, 1033, 1028, 1030
572, 534, 533, 1010, 1011, 596, 595, 1037, 1038
573, 1039, 1040, 1041, 1042, 534, 1043, 1044, 1045
574, 1040, 1046, 1047, 1041, 1043, 1048, 1049, 1044
575, 1042, 1041, 1050, 1051, 1045, 1044, 1052, 1053
576, 1041, 1047, 1054, 1050, 1044, 1049, 1055, 1052
577, 1051, 1050, 1056, 1057, 1053, 1052, 1058, 596
578, 1050, 1054, 1059, 1056, 1052, 1055, 1060, 1058
579, 1054, 1061, 1062, 1059, 1055, 1063, 1038, 1060
580, 1045, 1044, 1052, 1053, 534, 1043, 1058, 596
581, 1049, 1064, 1063, 1055, 1048, 1011, 1038, 1060
582, 1044, 1049, 1055, 1052, 1043, 1048, 1060, 1058
583, 1043, 1048, 1060, 1058, 534, 1011, 1038, 596
584, 547, 1039, 1042, 548, 532, 534, 1045, 549
585, 548, 1042, 1051, 554, 549, 1045, 1053, 555
586, 549, 1045, 1053, 555, 532, 534, 596, 538
587, 554, 1051, 1057, 563, 555, 1053, 596, 538
588, 1039, 975, 974, 1040, 534, 528, 978, 1043
589, 1040, 974, 1065, 1046, 1043, 978, 1066, 1048
590, 1043, 978, 1066, 1048, 534, 528, 971, 1011
591, 1067, 1068, 533, 1069, 1070, 1071, 1072, 1073
592, 1074, 1067, 1069, 1075, 1076, 1070, 1073, 1077
593, 1078, 1074, 1075, 1010, 1079, 1076, 1077, 1080
594, 1081, 1082, 1068, 1067, 1083, 1084, 1071, 1070
595, 1085, 1081, 1067, 1074, 1086, 1083, 1070, 1076
596, 1087, 1085, 1074, 1078, 1088, 1086, 1076, 1079
597, 1089, 595, 1082, 1081, 1090, 1091, 1084, 1083
598, 1092, 1089, 1081, 1085, 1093, 1090, 1083, 1086
599, 1037, 1092, 1085, 1087, 1094, 1093, 1086, 1088
600, 1089, 595, 533, 1069, 1081, 1082, 1068, 1067
601, 1037, 1092, 1075, 1010, 1087, 1085, 1074, 1078
602, 1092, 1089, 1069, 1075, 1085, 1081, 1067, 1074
603, 1037, 595, 533, 1010, 1092, 1089, 1069, 1075
604, 1068, 578, 531, 533, 1071, 579, 580, 1072
605, 1082, 587, 578, 1068, 1084, 588, 579, 1071
606, 595, 537, 531, 533, 1082, 587, 578, 1068
607, 595, 537, 587, 1082, 1091, 594, 588, 1084
608, 1000, 1069, 533, 527, 1001, 1073, 1072, 1002
609, 1003, 1075, 1069, 1000, 1004, 1077, 1073, 1001
610, 970, 1010, 533, 527, 1003, 1075, 1069, 1000
611, 970, 1010, 1075, 1003, 1005, 1080, 1077, 1004
612, 596, 595, 1037, 1038, 602, 601, 1095, 1096
613, 1097, 1098, 938, 937, 1099, 1100, 932, 931
614, 1101, 1097, 937, 940, 1102, 1099, 931, 934
615, 1103, 1101, 940, 941, 1104, 1102, 934, 935
616, 1105, 1106, 1098, 1097, 1107, 1108, 1100, 1099
617, 1109, 1105, 1097, 1101, 1110, 1107, 1099, 1102
618, 1111, 1109, 1101, 1103, 1112, 1110, 1102, 1104
619, 1113, 1114, 1106, 1105, 1115, 1116, 1108, 1107
620, 1117, 1113, 1105, 1109, 1118, 1115, 1107, 1110
621, 1119, 1117, 1109, 1111, 1120, 1118, 1110, 1112
622, 1113, 1114, 938, 937, 1105, 1106, 1098, 1097
623, 1119, 1117, 940, 941, 1111, 1109, 1101, 1103
624, 1117, 1113, 937, 940, 1109, 1105, 1097, 1101
625, 1119, 1114, 938, 941, 1117, 1113, 937, 940
626, 1098, 1016, 900, 938, 1100, 1017, 889, 932
627, 1106, 1022, 1016, 1098, 1108, 1023, 1017, 1100
628, 1114, 1029, 900, 938, 1106, 1022, 1016, 1098
629, 1114, 1029, 1022, 1106, 1116, 1030, 1023, 1108
630, 1121, 1122, 1114, 1113, 1123, 1124, 1116, 1115
631, 1125, 1121, 1113, 1117, 1126, 1123, 1115, 1118
632, 1127, 1128, 1129, 1130, 1131, 1132, 964, 963
633, 1133, 1134, 1128, 1127, 1135, 1136, 1132, 1131
634, 1128, 1103, 941, 1129, 1132, 1104, 935, 964
635, 1134, 1111, 1103, 1128, 1136, 1112, 1104, 1132
636, 1137, 1138, 1139, 1140, 1141, 1142, 1143, 1144
637, 1145, 1146, 1147, 1148, 1138, 1149, 1150, 1139
638, 1146, 1151, 1152, 1147, 1149, 1153, 1154, 1150
639, 1138, 1149, 1150, 1139, 1142, 1155, 1156, 1143
640, 1149, 1153, 1154, 1150, 1155, 1157, 1158, 1156
641, 1159, 1160, 1161, 1162, 1163, 1164, 1165, 1166
642, 1162, 1161, 1167, 1168, 1166, 1165, 1169, 1170
643, 1163, 1164, 1165, 1166, 1171, 1172, 1169, 1170
644, 1172, 1148, 1173, 1169, 1140, 1139, 1174, 1175
645, 1176, 1169, 1177, 1178, 1179, 1175, 1180, 1181
646, 1169, 1173, 1182, 1177, 1175, 1174, 1183, 1180
647, 1184, 1140, 1175, 1179, 1185, 1144, 1186, 1187
648, 1140, 1139, 1174, 1175, 1144, 1143, 1188, 1186
649, 1179, 1175, 1180, 1181, 1187, 1186, 1189, 1190
650, 1175, 1174, 1183, 1180, 1186, 1188, 1191, 1189
651, 1148, 1147, 1192, 1173, 1139, 1150, 1193, 1174
652, 1194, 1195, 1196, 1197, 1148, 1198, 1199, 1200
653, 1195, 1201, 1202, 1196, 1198, 1203, 1204, 1199
654, 1201, 1205, 1206, 1202, 1203, 1147, 1207, 1204
655, 1197, 1196, 1208, 1209, 1200, 1199, 1210, 1211
656, 1196, 1202, 1212, 1208, 1199, 1204, 1213, 1210
657, 1202, 1206, 1214, 1212, 1204, 1207, 1215, 1213
658, 1209, 1208, 1216, 1217, 1211, 1210, 1218, 1173
659, 1208, 1212, 1219, 1216, 1210, 1213, 1220, 1218
660, 1212, 1214, 1221, 1219, 1213, 1215, 1192, 1220
661, 1200, 1199, 1210, 1211, 1148, 1198, 1218, 1173
662, 1204, 1207, 1215, 1213, 1203, 1147, 1192, 1220
663, 1199, 1204, 1213, 1210, 1198, 1203, 1220, 1218
664, 1198, 1203, 1220, 1218, 1148, 1147, 1192, 1173
665, 1222, 1194, 1197, 1160, 1172, 1148, 1200, 1164
666, 1160, 1197, 1209, 1161, 1164, 1200, 1211, 1165
667, 1164, 1200, 1211, 1165, 1172, 1148, 1173, 1169
668, 1161, 1209, 1217, 1167, 1165, 1211, 1173, 1169
669, 1194, 1223, 1224, 1195, 1148, 1145, 1225, 1198
670, 1195, 1224, 1226, 1201, 1198, 1225, 1227, 1203
671, 1198, 1225, 1227, 1203, 1148, 1145, 1146, 1147
672, 1201, 1226, 1228, 1205, 1203, 1227, 1146, 1147
673, 1147, 1152, 1229, 1192, 1150, 1154, 1230, 1193
674, 1173, 1192, 1231, 1182, 1174, 1193, 1232, 1183
675, 1192, 1229, 1233, 1231, 1193, 1230, 1234, 1232
676, 1139, 1150, 1193, 1174, 1143, 1156, 1235, 1188
677, 1150, 1154, 1230, 1193, 1156, 1158, 1236, 1235
678, 1174, 1193, 1232, 1183, 1188, 1235, 1237, 1191
679, 1193, 1230, 1234, 1232, 1235, 1236, 1238, 1237
680, 281, 282, 283, 284, 1239, 1240, 1241, 1242
681, 1243, 1244, 1245, 1246, 281, 1247, 1248, 1249
682, 1244, 1250, 1251, 1245, 1247, 1252, 1253, 1248
683, 1250, 1254, 1255, 1251, 1252, 284, 1256, 1253
684, 1246, 1245, 1257, 1258, 1249, 1248, 1259, 1260
685, 1245, 1251, 1261, 1257, 1248, 1253, 1262, 1259
686, 1251, 1255, 1263, 1261, 1253, 1256, 1264, 1262
687, 1258, 1257, 1265, 1266, 1260, 1259, 1267, 1239
688, 1257, 1261, 1268, 1265, 1259, 1262, 1269, 1267
689, 1261, 1263, 1270, 1268, 1262, 1264, 1242, 1269
690, 1249, 1248, 1259, 1260, 281, 1247, 1267, 1239
691, 1253, 1256, 1264, 1262, 1252, 284, 1242, 1269
692, 1248, 1253, 1262, 1259, 1247, 1252, 1269, 1267
693, 1247, 1252, 1269, 1267, 281, 284, 1242, 1239
694, 1243, 246, 245, 1244, 281, 225, 247, 1247
695, 1244, 245, 248, 1250, 1247, 247, 249, 1252
696, 1247, 247, 249, 1252, 281, 225, 228, 284
697, 1250, 248, 250, 1254, 1252, 249, 228, 284
698, 1271, 1266, 1265, 1272, 1273, 1239, 1267, 1274
699, 1272, 1265, 1268, 1275, 1274, 1267, 1269, 1276
700, 1275, 1268, 1270, 1277, 1276, 1269, 1242, 1278
701, 1274, 1267, 1269, 1276, 1273, 1239, 1242, 1278
702, 1271, 1272, 1275, 1277, 1273, 1274, 1276, 1278
703, 1279, 1280, 282, 1281, 1282, 1283, 1284, 1285
704, 1286, 1279, 1281, 1287, 1288, 1282, 1285, 1289
705, 1290, 1286, 1287, 283, 1291, 1288, 1289, 1292
706, 1293, 1294, 1279, 1286, 1295, 1296, 1282, 1288
707, 1297, 1293, 1286, 1290, 1298, 1295, 1288, 1291
708, 1299, 1300, 1294, 1293, 1301, 1302, 1296, 1295
709, 1241, 1299, 1293, 1297, 1303, 1301, 1295, 1298
710, 1300, 1240, 282, 1281, 1294, 1304, 1280, 1279
711, 1241, 1299, 1287, 283, 1297, 1293, 1286, 1290
712, 1299, 1300, 1281, 1287, 1293, 1294, 1279, 1286
713, 1241, 1240, 282, 283, 1299, 1300, 1281, 1287
714, 268, 1281, 282, 226, 270, 1285, 1284, 271
715, 273, 1287, 1281, 268, 274, 1289, 1285, 270
716, 227, 283, 282, 226, 273, 1287, 1281, 268
717, 227, 283, 1287, 273, 275, 1292, 1289, 274
718, 284, 283, 285, 286, 1242, 1241, 1305, 1306
719, 1239, 1240, 1241, 1242, 1273, 1307, 1308, 1278
720, 1242, 1241, 1305, 1306, 1278, 1308, 1309, 1310
721, 1151, 1311, 1271, 1152, 1153, 1312, 1313, 1154
722, 1153, 1312, 1313, 1154, 1157, 1314, 1315, 1158
723, 1152, 1271, 1277, 1229, 1154, 1313, 1316, 1230
724, 1317, 1318, 1319, 1320, 1152, 1321, 1322, 1323
725, 1318, 1324, 1325, 1319, 1321, 1326, 1327, 1322
726, 1324, 1266, 1265, 1325, 1326, 1271, 1272, 1327
727, 1320, 1319, 1328, 1329, 1323, 1322, 1330, 1331
728, 1319, 1325, 1332, 1328, 1322, 1327, 1333, 1330
729, 1325, 1265, 1268, 1332, 1327, 1272, 1275, 1333
730, 1329, 1328, 1334, 1335, 1331, 1330, 1336, 1229
731, 1328, 1332, 1337, 1334, 1330, 1333, 1338, 1336
732, 1332, 1268, 1270, 1337, 1333, 1275, 1277, 1338
733, 1323, 1322, 1330, 1331, 1152, 1321, 1336, 1229
734, 1327, 1272, 1275, 1333, 1326, 1271, 1277, 1338
735, 1322, 1327, 1333, 1330, 1321, 1326, 1338, 1336
736, 1321, 1326, 1338, 1336, 1152, 1271, 1277, 1229
737, 1205, 1317, 1320, 1206, 1147, 1152, 1323, 1207
738, 1206, 1320, 1329, 1214, 1207, 1323, 1331, 1215
739, 1207, 1323, 1331, 1215, 1147, 1152, 1229, 1192
740, 1214, 1329, 1335, 1221, 1215, 1331, 1229, 1192
741, 1317, 1339, 1340, 1318, 1152, 1151, 1341, 1321
742, 1318, 1340, 1342, 1324, 1321, 1341, 1343, 1326
743, 1321, 1341, 1343, 1326, 1152, 1151, 1311, 1271
744, 1271, 1273, 1278, 1277, 1313, 1344, 1345, 1316
745, 1229, 1277, 1346, 1233, 1230, 1316, 1347, 1234
746, 1277, 1278, 1310, 1346, 1316, 1345, 1348, 1347
747, 1154, 1313, 1316, 1230, 1158, 1315, 1349, 1236
748, 1313, 1344, 1345, 1316, 1315, 1350, 1351, 1349
749, 1230, 1316, 1347, 1234, 1236, 1349, 1352, 1238
750, 1316, 1345, 1348, 1347, 1349, 1351, 1353, 1352
751, 1273, 1307, 1308, 1278, 1344, 1354, 1355, 1345
752, 1356, 1357, 1358, 1308, 1359, 1360, 1361, 1362
753, 1355, 1363, 1358, 1308, 1364, 1365, 1357, 1356
754, 1299, 1358, 1366, 1300, 1301, 1361, 1367, 1302
755, 1241, 1308, 1307, 1240, 1299, 1358, 1366, 1300
756, 1241, 1308, 1358, 1299, 1303, 1362, 1361, 1301
757, 1278, 1308, 1309, 1310, 1345, 1355, 1368, 1348
758, 1345, 1355, 1368, 1348, 1351, 1369, 1370, 1353
759, 1142, 1155, 1156, 1143, 1371, 1372, 1373, 1374
760, 1155, 1157, 1158, 1156, 1372, 1375, 1376, 1373
761, 1144, 1143, 1188, 1186, 1377, 1374, 1378, 1379
762, 1187, 1186, 1189, 1190, 1380, 1379, 1381, 1382
763, 1186, 1188, 1191, 1189, 1379, 1378, 1383, 1381
764, 1379, 1378, 1383, 1381, 1384, 1385, 1386, 1387
765, 1143, 1156, 1235, 1188, 1374, 1373, 1388, 1378
766, 1156, 1158, 1236, 1235, 1373, 1376, 1389, 1388
767, 1188, 1235, 1237, 1191, 1378, 1388, 1390, 1383
768, 1235, 1236, 1238, 1237, 1388, 1389, 1391, 1390
769, 1374, 1373, 1388, 1378, 1392, 1393, 1394, 1385
770, 1373, 1376, 1389, 1388, 1393, 1395, 1396, 1394
771, 1378, 1388, 1390, 1383, 1385, 1394, 1397, 1386
772, 1388, 1389, 1391, 1390, 1394, 1396, 1398, 1397
773, 1157, 1314, 1315, 1158, 1375, 1399, 1400, 1376
774, 1158, 1315, 1349, 1236, 1376, 1400, 1401, 1389
775, 1315, 1350, 1351, 1349, 1400, 1402, 1403, 1401
776, 1236, 1349, 1352, 1238, 1389, 1401, 1404, 1391
777, 1349, 1351, 1353, 1352, 1401, 1403, 1405, 1404
778, 1376, 1400, 1401, 1389, 1395, 1406, 1407, 1396
779, 1389, 1401, 1404, 1391, 1396, 1407, 1408, 1398
780, 1401, 1403, 1405, 1404, 1407, 1409, 1410, 1408
781, 597, 598, 599, 600, 1411, 1412, 1413, 1414
782, 1415, 1416, 1417, 1418, 597, 1419, 1420, 1421
783, 1416, 1422, 1423, 1417, 1419, 1424, 1425, 1420
784, 1422, 1426, 1427, 1423, 1424, 600, 1428, 1425
785, 1417, 1423, 1429, 1430, 1420, 1425, 1431, 1432
786, 1423, 1427, 1433, 1429, 1425, 1428, 1434, 1431
787, 1430, 1429, 1435, 1436, 1432, 1431, 1437, 1438
788, 1429, 1433, 1439, 1435, 1431, 1434, 1414, 1437
789, 1421, 1420, 1432, 1440, 597, 1419, 1438, 1411
790, 1425, 1428, 1434, 1431, 1424, 600, 1414, 1437
791, 1420, 1425, 1431, 1432, 1419, 1424, 1437, 1438
792, 1419, 1424, 1437, 1438, 597, 600, 1414, 1411
793, 1415, 558, 557, 1416, 597, 535, 560, 1419
794, 1416, 557, 561, 1422, 1419, 560, 562, 1424
795, 1419, 560, 562, 1424, 597, 535, 538, 600
796, 1422, 561, 563, 1426, 1424, 562, 538, 600
797, 1441, 1442, 598, 1443, 1444, 1445, 1446, 1447
798, 1448, 1441, 1443, 1449, 1450, 1444, 1447, 1451
799, 1452, 1448, 1449, 599, 1453, 1450, 1451, 1454
800, 1455, 1456, 1442, 1441, 1457, 1458, 1445, 1444
801, 1459, 1455, 1441, 1448, 1460, 1457, 1444, 1450
802, 1461, 1459, 1448, 1452, 1462, 1460, 1450, 1453
803, 1463, 1412, 1456, 1455, 1464, 1465, 1458, 1457
804, 1466, 1463, 1455, 1459, 1467, 1464, 1457, 1460
805, 1413, 1466, 1459, 1461, 1468, 1467, 1460, 1462
806, 1463, 1412, 598, 1443, 1455, 1456, 1442, 1441
807, 1413, 1466, 1449, 599, 1461, 1459, 1448, 1452
808, 1466, 1463, 1443, 1449, 1459, 1455, 1441, 1448
809, 1413, 1412, 598, 599, 1466, 1463, 1443, 1449
810, 589, 1443, 598, 536, 590, 1447, 1446, 591
811, 592, 1449, 1443, 589, 593, 1451, 1447, 590
812, 537, 599, 598, 536, 592, 1449, 1443, 589
813, 537, 599, 1449, 592, 594, 1454, 1451, 593
814, 1463, 1469, 1470, 1412, 1464, 1471, 1472, 1465
815, 1466, 1473, 1469, 1463, 1467, 1474, 1471, 1464
816, 1413, 1475, 1473, 1466, 1468, 1476, 1474, 1467
817, 1413, 1475, 1470, 1412, 1466, 1473, 1469, 1463
818, 1473, 1475, 1470, 1469, 1474, 1476, 1472, 1471
819, 600, 599, 601, 602, 1414, 1413, 1477, 1478
820, 1411, 1412, 1413, 1414, 1479, 1470, 1475, 1480
821, 1414, 1413, 1477, 1478, 1480, 1475, 1481, 1482
822, 1483, 1484, 1485, 1472, 1486, 1487, 1488, 1489
823, 1484, 1490, 1491, 1485, 1487, 1492, 1493, 1488
824, 1486, 1487, 1488, 1489, 1494, 1495, 1496, 1497
825, 1487, 1492, 1493, 1488, 1495, 1498, 1499, 1496
826, 1479, 1470, 1475, 1480, 1500, 1501, 1502, 1503
827, 1504, 1505, 1506, 1507, 1508, 1480, 1509, 1510
828, 1510, 1509, 1511, 1512, 1508, 1480, 1503, 1513
829, 1514, 1436, 1435, 1504, 1515, 1438, 1437, 1508
830, 1515, 1438, 1437, 1508, 1479, 1411, 1414, 1480
831, 1504, 1435, 1439, 1505, 1508, 1437, 1414, 1480
832, 1470, 1472, 1476, 1475, 1501, 1489, 1516, 1502
833, 1480, 1475, 1481, 1482, 1503, 1502, 1517, 1518
834, 1475, 1476, 1519, 1481, 1502, 1516, 1520, 1517
835, 1501, 1489, 1516, 1502, 1521, 1497, 1522, 1523
836, 1503, 1502, 1517, 1518, 1524, 1523, 1525, 1526
837, 1502, 1516, 1520, 1517, 1523, 1522, 1527, 1525
838, 1472, 1485, 1528, 1476, 1489, 1488, 1529, 1516
839, 1465, 1530, 1531, 1464, 1472, 1532, 1533, 1471
840, 1530, 1534, 1535, 1531, 1532, 1536, 1537, 1533
841, 1534, 1538, 1539, 1535, 1536, 1485, 1540, 1537
842, 1464, 1531, 1541, 1467, 1471, 1533, 1542, 1474
843, 1531, 1535, 1543, 1541, 1533, 1537, 1544, 1542
844, 1535, 1539, 1545, 1543, 1537, 1540, 1546, 1544
845, 1467, 1541, 1547, 1468, 1474, 1542, 1548, 1476
846, 1541, 1543, 1549, 1547, 1542, 1544, 1550, 1548
847, 1543, 1545, 1551, 1549, 1544, 1546, 1528, 1550
848, 1471, 1533, 1542, 1474, 1472, 1532, 1548, 1476
849, 1537, 1540, 1546, 1544, 1536, 1485, 1528, 1550
850, 1533, 1537, 1544, 1542, 1532, 1536, 1550, 1548
851, 1532, 1536, 1550, 1548, 1472, 1485, 1528, 1476
852, 1530, 1552, 1553, 1534, 1532, 1554, 1555, 1536
853, 1532, 1554, 1555, 1536, 1472, 1483, 1484, 1485
854, 1534, 1553, 1556, 1538, 1536, 1555, 1484, 1485
855, 1485, 1491, 1557, 1528, 1488, 1493, 1558, 1529
856, 1476, 1528, 1559, 1519, 1516, 1529, 1560, 1520
857, 1528, 1557, 1561, 1559, 1529, 1558, 1562, 1560
858, 1489, 1488, 1529, 1516, 1497, 1496, 1563, 1522
859, 1488, 1493, 1558, 1529, 1496, 1499, 1564, 1563
860, 1516, 1529, 1560, 1520, 1522, 1563, 1565, 1527
861, 1529, 1558, 1562, 1560, 1563, 1564, 1566, 1565
862, 1490, 1567, 1568, 1491, 1492, 1569, 1570, 1493
863, 1492, 1569, 1570, 1493, 1498, 1571, 1572, 1499
864, 1569, 1573, 1574, 1570, 1571, 1575, 1576, 1572
865, 1491, 1568, 1577, 1557, 1493, 1570, 1578, 1558
866, 1579, 1580, 1581, 1582, 1491, 1583, 1584, 1585
867, 1580, 1586, 1587, 1581, 1583, 1588, 1589, 1584
868, 1586, 1590, 1591, 1587, 1588, 1568, 1592, 1589
869, 1582, 1581, 1593, 1594, 1585, 1584, 1595, 1596
870, 1581, 1587, 1597, 1593, 1584, 1589, 1598, 1595
871, 1587, 1591, 1599, 1597, 1589, 1592, 1600, 1598
872, 1594, 1593, 1601, 1602, 1596, 1595, 1603, 1557
873, 1593, 1597, 1604, 1601, 1595, 1598, 1605, 1603
874, 1597, 1599, 1606, 1604, 1598, 1600, 1577, 1605
875, 1585, 1584, 1595, 1596, 1491, 1583, 1603, 1557
876, 1589, 1592, 1600, 1598, 1588, 1568, 1577, 1605
877, 1584, 1589, 1598, 1595, 1583, 1588, 1605, 1603
878, 1583, 1588, 1605, 1603, 1491, 1568, 1577, 1557
879, 1538, 1579, 1582, 1539, 1485, 1491, 1585, 1540
880, 1539, 1582, 1594, 1545, 1540, 1585, 1596, 1546
881, 1540, 1585, 1596, 1546, 1485, 1491, 1557, 1528
882, 1545, 1594, 1602, 1551, 1546, 1596, 1557, 1528
883, 1579, 1607, 1608, 1580, 1491, 1490, 1609, 1583
884, 1580, 1608, 1610, 1586, 1583, 1609, 1611, 1588
885, 1583, 1609, 1611, 1588, 1491, 1490, 1567, 1568
886, 1586, 1610, 1612, 1590, 1588, 1611, 1567, 1568
887, 1568, 1613, 1614, 1577, 1570, 1574, 1615, 1578
888, 1557, 1577, 1616, 1561, 1558, 1578, 1617, 1562
889, 1577, 1614, 1618, 1616, 1578, 1615, 1619, 1617
890, 1493, 1570, 1578, 1558, 1499, 1572, 1620, 1564
891, 1570, 1574, 1615, 1578, 1572, 1576, 1621, 1620
892, 1558, 1578, 1617, 1562, 1564, 1620, 1622, 1566
893, 1578, 1615, 1619, 1617, 1620, 1621, 1623, 1622
894, 1624, 1625, 1626, 1627, 1628, 1629, 1630, 1631
895, 1627, 1626, 1632, 1633, 1631, 1630, 1634, 1614
896, 1628, 1629, 1630, 1631, 1613, 1635, 1634, 1614
897, 1590, 1636, 1624, 1591, 1568, 1613, 1628, 1592
898, 1591, 1624, 1627, 1599, 1592, 1628, 1631, 1600
899, 1592, 1628, 1631, 1600, 1568, 1613, 1614, 1577
900, 1599, 1627, 1633, 1606, 1600, 1631, 1614, 1577
901, 1614, 1637, 1638, 1618, 1615, 1639, 1640, 1619
902, 1574, 1641, 1639, 1615, 1576, 1642, 1643, 1621
903, 1615, 1639, 1640, 1619, 1621, 1643, 1644, 1623
904, 1494, 1495, 1496, 1497, 1645, 1646, 1647, 1648
905, 1495, 1498, 1499, 1496, 1646, 1649, 1650, 1647
906, 1521, 1497, 1522, 1523, 1651, 1648, 1652, 1653
907, 1523, 1522, 1527, 1525, 1653, 1652, 1654, 1655
908, 1653, 1652, 1654, 1655, 1656, 1657, 1658, 1659
909, 1497, 1496, 1563, 1522, 1648, 1647, 1660, 1652
910, 1496, 1499, 1564, 1563, 1647, 1650, 1661, 1660
911, 1522, 1563, 1565, 1527, 1652, 1660, 1662, 1654
912, 1563, 1564, 1566, 1565, 1660, 1661, 1663, 1662
913, 1648, 1647, 1660, 1652, 1664, 1665, 1666, 1657
914, 1647, 1650, 1661, 1660, 1665, 1667, 1668, 1666
915, 1652, 1660, 1662, 1654, 1657, 1666, 1669, 1658
916, 1660, 1661, 1663, 1662, 1666, 1668, 1670, 1669
917, 1498, 1571, 1572, 1499, 1649, 1671, 1672, 1650
918, 1499, 1572, 1620, 1564, 1650, 1672, 1673, 1661
919, 1572, 1576, 1621, 1620, 1672, 1674, 1675, 1673
920, 1564, 1620, 1622, 1566, 1661, 1673, 1676, 1663
921, 1620, 1621, 1623, 1622, 1673, 1675, 1677, 1676
922, 1650, 1672, 1673, 1661, 1667, 1678, 1679, 1668
923, 1661, 1673, 1676, 1663, 1668, 1679, 1680, 1670
924, 1673, 1675, 1677, 1676, 1679, 1681, 1682, 1680
925, 1621, 1643, 1644, 1623, 1675, 1683, 1684, 1677
926, 1685, 1686, 1687, 1688, 1689, 1177, 1690, 1691
927, 1688, 1687, 1692, 1693, 1691, 1690, 1694, 1695
928, 1691, 1690, 1694, 1695, 1689, 1177, 1696, 1697
929, 1698, 1699, 1170, 1689, 1178, 1176, 1169, 1177
930, 1685, 1168, 1167, 1686, 1689, 1170, 1169, 1177
931, 1177, 1182, 1700, 1696, 1180, 1183, 1701, 1702
932, 1181, 1180, 1702, 1703, 1190, 1189, 1704, 1705
933, 1180, 1183, 1701, 1702, 1189, 1191, 1706, 1704
934, 1702, 1701, 1707, 1708, 1704, 1706, 1709, 1710
935, 1182, 1231, 1711, 1700, 1183, 1232, 1712, 1701
936, 1713, 1714, 1715, 1716, 1182, 1717, 1718, 1719
937, 1714, 1720, 1721, 1715, 1717, 1722, 1723, 1718
938, 1720, 1724, 1725, 1721, 1722, 1231, 1726, 1723
939, 1716, 1715, 1727, 1728, 1719, 1718, 1729, 1730
940, 1715, 1721, 1731, 1727, 1718, 1723, 1732, 1729
941, 1721, 1725, 1733, 1731, 1723, 1726, 1734, 1732
942, 1728, 1727, 1735, 1736, 1730, 1729, 1737, 1700
943, 1727, 1731, 1738, 1735, 1729, 1732, 1739, 1737
944, 1731, 1733, 1740, 1738, 1732, 1734, 1711, 1739
945, 1719, 1718, 1729, 1730, 1182, 1717, 1737, 1700
946, 1723, 1726, 1734, 1732, 1722, 1231, 1711, 1739
947, 1718, 1723, 1732, 1729, 1717, 1722, 1739, 1737
948, 1717, 1722, 1739, 1737, 1182, 1231, 1711, 1700
949, 1686, 1713, 1716, 1687, 1177, 1182, 1719, 1690
950, 1687, 1716, 1728, 1692, 1690, 1719, 1730, 1694
951, 1690, 1719, 1730, 1694, 1177, 1182, 1700, 1696
952, 1692, 1728, 1736, 1741, 1694, 1730, 1700, 1696
953, 1713, 1217, 1216, 1714, 1182, 1173, 1218, 1717
954, 1714, 1216, 1219, 1720, 1717, 1218, 1220, 1722
955, 1717, 1218, 1220, 1722, 1182, 1173, 1192, 1231
956, 1720, 1219, 1221, 1724, 1722, 1220, 1192, 1231
957, 1231, 1233, 1742, 1711, 1232, 1234, 1743, 1712
958, 1700, 1711, 1744, 1745, 1701, 1712, 1746, 1707
959, 1711, 1742, 1747, 1744, 1712, 1743, 1748, 1746
960, 1183, 1232, 1712, 1701, 1191, 1237, 1749, 1706
961, 1232, 1234, 1743, 1712, 1237, 1238, 1750, 1749
962, 1701, 1712, 1746, 1707, 1706, 1749, 1751, 1709
963, 1712, 1743, 1748, 1746, 1749, 1750, 1752, 1751
964, 1753, 1736, 1735, 1754, 1745, 1700, 1737, 1755
965, 1754, 1735, 1738, 1756, 1755, 1737, 1739, 1757
966, 1755, 1737, 1739, 1757, 1745, 1700, 1711, 1744
967, 1756, 1738, 1740, 1758, 1757, 1739, 1711, 1744
968, 286, 285, 843, 844, 1306, 1305, 1759, 1760
969, 1761, 1762, 1763, 1764, 286, 1765, 1766, 1767
970, 1762, 1768, 1769, 1763, 1765, 1770, 1771, 1766
971, 1768, 1772, 1773, 1769, 1770, 844, 1774, 1771
972, 1764, 1763, 1775, 1776, 1767, 1766, 1777, 1778
973, 1763, 1769, 1779, 1775, 1766, 1771, 1780, 1777
974, 1769, 1773, 1781, 1779, 1771, 1774, 1782, 1780
975, 1776, 1775, 1783, 1784, 1778, 1777, 1785, 1306
976, 1775, 1779, 1786, 1783, 1777, 1780, 1787, 1785
977, 1779, 1781, 1788, 1786, 1780, 1782, 1760, 1787
978, 1767, 1766, 1777, 1778, 286, 1765, 1785, 1306
979, 1771, 1774, 1782, 1780, 1770, 844, 1760, 1787
980, 1766, 1771, 1780, 1777, 1765, 1770, 1787, 1785
981, 1765, 1770, 1787, 1785, 286, 844, 1760, 1306
982, 1254, 1761, 1764, 1255, 284, 286, 1767, 1256
983, 1255, 1764, 1776, 1263, 1256, 1767, 1778, 1264
984, 1256, 1767, 1778, 1264, 284, 286, 1306, 1242
985, 1263, 1776, 1784, 1270, 1264, 1778, 1306, 1242
986, 1761, 810, 809, 1762, 286, 280, 811, 1765
987, 1762, 809, 812, 1768, 1765, 811, 813, 1770
988, 1765, 811, 813, 1770, 286, 280, 792, 844
989, 1768, 812, 814, 1772, 1770, 813, 792, 844
990, 1346, 1784, 1783, 1789, 1310, 1306, 1785, 1790
991, 1789, 1783, 1786, 1791, 1790, 1785, 1787, 1792
992, 1791, 1786, 1788, 1793, 1792, 1787, 1760, 1794
993, 1790, 1785, 1787, 1792, 1310, 1306, 1760, 1794
994, 1346, 1789, 1791, 1793, 1310, 1790, 1792, 1794
995, 1795, 1796, 285, 1797, 1798, 1799, 1800, 1801
996, 1802, 1795, 1797, 1803, 1804, 1798, 1801, 1805
997, 1806, 1802, 1803, 843, 1807, 1804, 1805, 1808
998, 1809, 1810, 1796, 1795, 1811, 1812, 1799, 1798
999, 1813, 1809, 1795, 1802, 1814, 1811, 1798, 1804
1000, 1815, 1305, 1810, 1809, 1816, 1817, 1812, 1811
1001, 1818, 1815, 1809, 1813, 1819, 1816, 1811, 1814
1002, 1815, 1305, 285, 1797, 1809, 1810, 1796, 1795
1003, 1759, 1818, 1803, 843, 1820, 1813, 1802, 1806
1004, 1818, 1815, 1797, 1803, 1813, 1809, 1795, 1802
1005, 1759, 1305, 285, 843, 1818, 1815, 1797, 1803
1006, 1796, 1290, 283, 285, 1799, 1291, 1292, 1800
1007, 1810, 1297, 1290, 1796, 1812, 1298, 1291, 1799
1008, 1305, 1241, 283, 285, 1810, 1297, 1290, 1796
1009, 1305, 1241, 1297, 1810, 1817, 1303, 1298, 1812
1010, 832, 1797, 285, 279, 833, 1801, 1800, 834
1011, 835, 1803, 1797, 832, 836, 1805, 1801, 833
1012, 791, 843, 285, 279, 835, 1803, 1797, 832
1013, 791, 843, 1803, 835, 838, 1808, 1805, 836
1014, 1306, 1305, 1759, 1760, 1310, 1309, 1821, 1794
1015, 1233, 1346, 1793, 1742, 1234, 1347, 1822, 1743
1016, 1823, 1824, 1825, 1826, 1233, 1827, 1828, 1829
1017, 1824, 1830, 1831, 1825, 1827, 1832, 1833, 1828
1018, 1830, 1784, 1783, 1831, 1832, 1346, 1789, 1833
1019, 1826, 1825, 1834, 1835, 1829, 1828, 1836, 1837
1020, 1825, 1831, 1838, 1834, 1828, 1833, 1839, 1836
1021, 1831, 1783, 1786, 1838, 1833, 1789, 1791, 1839
1022, 1835, 1834, 1840, 1841, 1837, 1836, 1842, 1742
1023, 1834, 1838, 1843, 1840, 1836, 1839, 1844, 1842
1024, 1838, 1786, 1788, 1843, 1839, 1791, 1793, 1844
1025, 1829, 1828, 1836, 1837, 1233, 1827, 1842, 1742
1026, 1833, 1789, 1791, 1839, 1832, 1346, 1793, 1844
1027, 1828, 1833, 1839, 1836, 1827, 1832, 1844, 1842
1028, 1827, 1832, 1844, 1842, 1233, 1346, 1793, 1742
1029, 1724, 1823, 1826, 1725, 1231, 1233, 1829, 1726
1030, 1725, 1826, 1835, 1733, 1726, 1829, 1837, 1734
1031, 1726, 1829, 1837, 1734, 1231, 1233, 1742, 1711
1032, 1733, 1835, 1841, 1740, 1734, 1837, 1742, 1711
1033, 1823, 1335, 1334, 1824, 1233, 1229, 1336, 1827
1034, 1824, 1334, 1337, 1830, 1827, 1336, 1338, 1832
1035, 1827, 1336, 1338, 1832, 1233, 1229, 1277, 1346
1036, 1830, 1337, 1270, 1784, 1832, 1338, 1277, 1346
1037, 1346, 1310, 1794, 1793, 1347, 1348, 1845, 1822
1038, 1742, 1793, 1846, 1747, 1743, 1822, 1847, 1748
1039, 1234, 1347, 1822, 1743, 1238, 1352, 1848, 1750
1040, 1347, 1348, 1845, 1822, 1352, 1353, 1849, 1848
1041, 1743, 1822, 1847, 1748, 1750, 1848, 1850, 1752
1042, 1310, 1309, 1821, 1794, 1348, 1368, 1851, 1845
1043, 1852, 1853, 1309, 1854, 1855, 1856, 1857, 1858
1044, 1859, 1368, 1309, 1854, 1860, 1861, 1853, 1852
1045, 1853, 1356, 1308, 1309, 1856, 1359, 1362, 1857
1046, 1368, 1355, 1308, 1309, 1861, 1364, 1356, 1853
1047, 1815, 1854, 1309, 1305, 1816, 1858, 1857, 1817
1048, 1818, 1862, 1854, 1815, 1819, 1863, 1858, 1816
1049, 1759, 1821, 1309, 1305, 1818, 1862, 1854, 1815
1050, 1864, 1841, 1840, 1865, 1747, 1742, 1842, 1866
1051, 1865, 1840, 1843, 1867, 1866, 1842, 1844, 1868
1052, 1866, 1842, 1844, 1868, 1747, 1742, 1793, 1846
1053, 1189, 1191, 1706, 1704, 1381, 1383, 1869, 1870
1054, 1191, 1237, 1749, 1706, 1383, 1390, 1871, 1869
1055, 1237, 1238, 1750, 1749, 1390, 1391, 1872, 1871
1056, 1706, 1749, 1751, 1709, 1869, 1871, 1873, 1874
1057, 1749, 1750, 1752, 1751, 1871, 1872, 1875, 1873
1058, 1383, 1390, 1871, 1869, 1386, 1397, 1876, 1877
1059, 1390, 1391, 1872, 1871, 1397, 1398, 1878, 1876
1060, 1238, 1352, 1848, 1750, 1391, 1404, 1879, 1872
1061, 1352, 1353, 1849, 1848, 1404, 1405, 1880, 1879
1062, 1750, 1848, 1850, 1752, 1872, 1879, 1881, 1875
1063, 1391, 1404, 1879, 1872, 1398, 1408, 1882, 1878
1064, 602, 601, 1095, 1096, 1478, 1477, 1883, 1884
1065, 1885, 1886, 1887, 1888, 602, 1889, 1890, 1891
1066, 1886, 1892, 1893, 1887, 1889, 1894, 1895, 1890
1067, 1892, 1896, 1897, 1893, 1894, 1096, 1898, 1895
1068, 1888, 1887, 1899, 1900, 1891, 1890, 1901, 1902
1069, 1887, 1893, 1903, 1899, 1890, 1895, 1904, 1901
1070, 1900, 1899, 1905, 1906, 1902, 1901, 1907, 1478
1071, 1899, 1903, 1908, 1905, 1901, 1904, 1909, 1907
1072, 1891, 1890, 1901, 1902, 602, 1889, 1907, 1478
1073, 1895, 1898, 1910, 1904, 1894, 1096, 1884, 1909
1074, 1890, 1895, 1904, 1901, 1889, 1894, 1909, 1907
1075, 1889, 1894, 1909, 1907, 602, 1096, 1884, 1478
1076, 1426, 1885, 1888, 1427, 600, 602, 1891, 1428
1077, 1427, 1888, 1900, 1433, 1428, 1891, 1902, 1434
1078, 1428, 1891, 1902, 1434, 600, 602, 1478, 1414
1079, 1433, 1900, 1906, 1439, 1434, 1902, 1478, 1414
1080, 1885, 1057, 1056, 1886, 602, 596, 1058, 1889
1081, 1886, 1056, 1059, 1892, 1889, 1058, 1060, 1894
1082, 1889, 1058, 1060, 1894, 602, 596, 1038, 1096
1083, 1892, 1059, 1062, 1896, 1894, 1060, 1038, 1096
1084, 1911, 1912, 601, 1913, 1914, 1915, 1916, 1917
1085, 1918, 1911, 1913, 1919, 1920, 1914, 1917, 1921
1086, 1922, 1918, 1919, 1095, 1923, 1920, 1921, 1924
1087, 1925, 1926, 1912, 1911, 1927, 1928, 1915, 1914
1088, 1929, 1925, 1911, 1918, 1930, 1927, 1914, 1920
1089, 1931, 1929, 1918, 1922, 1932, 1930, 1920, 1923
1090, 1933, 1477, 1926, 1925, 1934, 1935, 1928, 1927
1091, 1936, 1933, 1925, 1929, 1937, 1934, 1927, 1930
1092, 1883, 1936, 1929, 1931, 1938, 1937, 1930, 1932
1093, 1933, 1477, 601, 1913, 1925, 1926, 1912, 1911
1094, 1883, 1936, 1919, 1095, 1931, 1929, 1918, 1922
1095, 1936, 1933, 1913, 1919, 1929, 1925, 1911, 1918
1096, 1883, 1477, 601, 1095, 1936, 1933, 1913, 1919
1097, 1912, 1452, 599, 601, 1915, 1453, 1454, 1916
1098, 1926, 1461, 1452, 1912, 1928, 1462, 1453, 1915
1099, 1477, 1413, 599, 601, 1926, 1461, 1452, 1912
1100, 1477, 1413, 1461, 1926, 1935, 1468, 1462, 1928
1101, 1089, 1913, 601, 595, 1090, 1917, 1916, 1091
1102, 1092, 1919, 1913, 1089, 1093, 1921, 1917, 1090
1103, 1037, 1095, 601, 595, 1092, 1919, 1913, 1089
1104, 1037, 1095, 1919, 1092, 1094, 1924, 1921, 1093
1105, 1933, 1939, 1481, 1477, 1934, 1940, 1519, 1935
1106, 1936, 1941, 1939, 1933, 1937, 1942, 1940, 1934
1107, 1883, 1943, 1941, 1936, 1938, 1944, 1942, 1937
1108, 1883, 1943, 1481, 1477, 1936, 1941, 1939, 1933
1109, 1941, 1943, 1481, 1939, 1942, 1944, 1519, 1940
1110, 1478, 1477, 1883, 1884, 1482, 1481, 1943, 1945
1111, 1482, 1481, 1943, 1945, 1518, 1517, 1946, 1947
1112, 1948, 1949, 1950, 1951, 1482, 1952, 1953, 1954
1113, 1954, 1953, 1955, 1956, 1482, 1952, 1957, 1518
1114, 1505, 1948, 1951, 1506, 1480, 1482, 1954, 1509
1115, 1509, 1954, 1956, 1511, 1480, 1482, 1518, 1503
1116, 1948, 1906, 1905, 1949, 1482, 1478, 1907, 1952
1117, 1949, 1905, 1908, 1958, 1952, 1907, 1909, 1959
1118, 1952, 1907, 1909, 1959, 1482, 1478, 1884, 1945
1119, 1481, 1519, 1944, 1943, 1517, 1520, 1960, 1946
1120, 1517, 1520, 1960, 1946, 1525, 1527, 1961, 1962
1121, 1519, 1559, 1963, 1944, 1520, 1560, 1964, 1960
1122, 1935, 1965, 1966, 1934, 1519, 1967, 1968, 1940
1123, 1965, 1969, 1970, 1966, 1967, 1971, 1972, 1968
1124, 1969, 1973, 1974, 1970, 1971, 1559, 1975, 1972
1125, 1934, 1966, 1976, 1937, 1940, 1968, 1977, 1942
1126, 1966, 1970, 1978, 1976, 1968, 1972, 1979, 1977
1127, 1970, 1974, 1980, 1978, 1972, 1975, 1981, 1979
1128, 1937, 1976, 1982, 1938, 1942, 1977, 1983, 1944
1129, 1976, 1978, 1984, 1982, 1977, 1979, 1985, 1983
1130, 1978, 1980, 1986, 1984, 1979, 1981, 1963, 1985
1131, 1940, 1968, 1977, 1942, 1519, 1967, 1983, 1944
1132, 1972, 1975, 1981, 1979, 1971, 1559, 1963, 1985
1133, 1968, 1972, 1979, 1977, 1967, 1971, 1985, 1983
1134, 1967, 1971, 1985, 1983, 1519, 1559, 1963, 1944
1135, 1935, 1468, 1547, 1965, 1519, 1476, 1548, 1967
1136, 1965, 1547, 1549, 1969, 1967, 1548, 1550, 1971
1137, 1967, 1548, 1550, 1971, 1519, 1476, 1528, 1559
1138, 1969, 1549, 1551, 1973, 1971, 1550, 1528, 1559
1139, 1559, 1561, 1987, 1963, 1560, 1562, 1988, 1964
1140, 1944, 1963, 1989, 1990, 1960, 1964, 1991, 1992
1141, 1963, 1987, 1993, 1989, 1964, 1988, 1994, 1991
1142, 1520, 1560, 1964, 1960, 1527, 1565, 1995, 1961
1143, 1560, 1562, 1988, 1964, 1565, 1566, 1996, 1995
1144, 1960, 1964, 1991, 1992, 1961, 1995, 1997, 1998
1145, 1964, 1988, 1994, 1991, 1995, 1996, 1999, 1997
1146, 2000, 1982, 1984, 2001, 2002, 1983, 1985, 2003
1147, 2002, 1983, 1985, 2003, 1990, 1944, 1963, 1989
1148, 2001, 1984, 1986, 2004, 2003, 1985, 1963, 1989
1149, 1561, 1616, 2005, 1987, 1562, 1617, 2006, 1988
1150, 2007, 2008, 2009, 2010, 1561, 2011, 2012, 2013
1151, 2008, 2014, 2015, 2009, 2011, 2016, 2017, 2012
1152, 2014, 2018, 2019, 2015, 2016, 1616, 2020, 2017
1153, 2010, 2009, 2021, 2022, 2013, 2012, 2023, 2024
1154, 2009, 2015, 2025, 2021, 2012, 2017, 2026, 2023
1155, 2015, 2019, 2027, 2025, 2017, 2020, 2028, 2026
1156, 2022, 2021, 2029, 2030, 2024, 2023, 2031, 1987
1157, 2021, 2025, 2032, 2029, 2023, 2026, 2033, 2031
1158, 2025, 2027, 2034, 2032, 2026, 2028, 2005, 2033
1159, 2013, 2012, 2023, 2024, 1561, 2011, 2031, 1987
1160, 2017, 2020, 2028, 2026, 2016, 1616, 2005, 2033
1161, 2012, 2017, 2026, 2023, 2011, 2016, 2033, 2031
1162, 2011, 2016, 2033, 2031, 1561, 1616, 2005, 1987
1163, 1973, 2007, 2010, 1974, 1559, 1561, 2013, 1975
1164, 1974, 2010, 2022, 1980, 1975, 2013, 2024, 1981
1165, 1975, 2013, 2024, 1981, 1559, 1561, 1987, 1963
1166, 1980, 2022, 2030, 1986, 1981, 2024, 1987, 1963
1167, 2007, 1602, 1601, 2008, 1561, 1557, 1603, 2011
1168, 2008, 1601, 1604, 2014, 2011, 1603, 1605, 2016
1169, 2011, 1603, 1605, 2016, 1561, 1557, 1577, 1616
1170, 2014, 1604, 1606, 2018, 2016, 1605, 1577, 1616
1171, 1616, 1618, 2035, 2005, 1617, 1619, 2036, 2006
1172, 1987, 2005, 2037, 1993, 1988, 2006, 2038, 1994
1173, 1562, 1617, 2006, 1988, 1566, 1622, 2039, 1996
1174, 1617, 1619, 2036, 2006, 1622, 1623, 2040, 2039
1175, 1988, 2006, 2038, 1994, 1996, 2039, 2041, 1999
1176, 2006, 2036, 2042, 2038, 2039, 2040, 2043, 2041
1177, 2044, 2045, 2046, 2047, 1618, 2048, 2049, 2050
1178, 2047, 2046, 2051, 2052, 2050, 2049, 2053, 2054
1179, 2050, 2049, 2053, 2054, 1618, 2048, 2055, 2035
1180, 2018, 2044, 2047, 2019, 1616, 1618, 2050, 2020
1181, 2019, 2047, 2052, 2027, 2020, 2050, 2054, 2028
1182, 2020, 2050, 2054, 2028, 1616, 1618, 2035, 2005
1183, 2027, 2052, 2056, 2034, 2028, 2054, 2035, 2005
1184, 2044, 1633, 1632, 2045, 1618, 1614, 1634, 2048
1185, 2048, 1634, 2057, 2058, 1618, 1614, 1637, 1638
1186, 1619, 1640, 2059, 2036, 1623, 1644, 2060, 2040
1187, 2061, 2030, 2029, 2062, 1993, 1987, 2031, 2063
1188, 2062, 2029, 2032, 2064, 2063, 2031, 2033, 2065
1189, 2063, 2031, 2033, 2065, 1993, 1987, 2005, 2037
1190, 2064, 2032, 2034, 2066, 2065, 2033, 2005, 2037
1191, 1525, 1527, 1961, 1962, 1655, 1654, 2067, 2068
1192, 1527, 1565, 1995, 1961, 1654, 1662, 2069, 2067
1193, 1565, 1566, 1996, 1995, 1662, 1663, 2070, 2069
1194, 1961, 1995, 1997, 1998, 2067, 2069, 2071, 2072
1195, 1995, 1996, 1999, 1997, 2069, 2070, 2073, 2071
1196, 1654, 1662, 2069, 2067, 1658, 1669, 2074, 2075
1197, 1662, 1663, 2070, 2069, 1669, 1670, 2076, 2074
1198, 1566, 1622, 2039, 1996, 1663, 1676, 2077, 2070
1199, 1622, 1623, 2040, 2039, 1676, 1677, 2078, 2077
1200, 1996, 2039, 2041, 1999, 2070, 2077, 2079, 2073
1201, 1663, 1676, 2077, 2070, 1670, 1680, 2080, 2076
1202, 114, 143, 150, 119, 2081, 2082, 2083, 2084
1203, 119, 150, 707, 689, 2084, 2083, 2085, 2086
1204, 2087, 2088, 2081, 2084, 2089, 2090, 2082, 2083
1205, 132, 136, 135, 129, 2091, 2092, 2093, 2094
1206, 130, 129, 142, 143, 2095, 2094, 2096, 2082
1207, 129, 135, 145, 142, 2094, 2093, 2097, 2096
1208, 2094, 2098, 2099, 2100, 2101, 2102, 2103, 2104
1209, 136, 139, 138, 135, 2092, 2105, 2106, 2093
1210, 139, 173, 172, 138, 2105, 2107, 2108, 2106
1211, 135, 138, 147, 145, 2093, 2106, 2109, 2097
1212, 138, 172, 185, 147, 2106, 2108, 2110, 2109
1213, 2111, 2112, 2113, 2105, 2114, 2115, 2116, 2117
1214, 2118, 2119, 2120, 2121, 2122, 2123, 2124, 2125
1215, 2126, 2118, 2121, 2112, 2127, 2122, 2125, 2115
1216, 2128, 2126, 2112, 2111, 2129, 2127, 2115, 2114
1217, 2130, 2093, 2119, 2118, 2131, 2132, 2123, 2122
1218, 2133, 2130, 2118, 2126, 2134, 2131, 2122, 2127
1219, 2106, 2133, 2126, 2128, 2135, 2134, 2127, 2129
1220, 2130, 2093, 2092, 2136, 2118, 2119, 2120, 2121
1221, 2106, 2133, 2113, 2105, 2128, 2126, 2112, 2111
1222, 2133, 2130, 2136, 2113, 2126, 2118, 2121, 2112
1223, 2106, 2093, 2092, 2105, 2133, 2130, 2136, 2113
1224, 2093, 2094, 2091, 2092, 2119, 2100, 2137, 2120
1225, 2093, 2094, 2100, 2119, 2132, 2101, 2104, 2123
1226, 2138, 2111, 2105, 2107, 2139, 2114, 2117, 2140
1227, 2141, 2128, 2111, 2138, 2142, 2129, 2114, 2139
1228, 2108, 2106, 2128, 2141, 2143, 2135, 2129, 2142
1229, 2108, 2106, 2105, 2107, 2141, 2128, 2111, 2138
1230, 2108, 2141, 2138, 2107, 2143, 2142, 2139, 2140
1231, 143, 142, 149, 150, 2082, 2096, 2144, 2083
1232, 142, 145, 152, 149, 2096, 2097, 2145, 2144
1233, 150, 149, 708, 707, 2083, 2144, 2146, 2085
1234, 149, 152, 712, 708, 2144, 2145, 2147, 2146
1235, 2148, 2149, 2150, 2151, 2152, 2153, 2154, 2155
1236, 2156, 2148, 2151, 2096, 2157, 2152, 2155, 2158
1237, 2159, 2089, 2090, 2149, 2160, 2161, 2162, 2153
1238, 2163, 2159, 2149, 2148, 2164, 2160, 2153, 2152
1239, 2165, 2163, 2148, 2156, 2166, 2164, 2152, 2157
1240, 2167, 2083, 2089, 2159, 2168, 2169, 2161, 2160
1241, 2170, 2167, 2159, 2163, 2171, 2168, 2160, 2164
1242, 2144, 2170, 2163, 2165, 2172, 2171, 2164, 2166
1243, 2167, 2083, 2082, 2150, 2159, 2089, 2090, 2149
1244, 2144, 2170, 2151, 2096, 2165, 2163, 2148, 2156
1245, 2170, 2167, 2150, 2151, 2163, 2159, 2149, 2148
1246, 2144, 2083, 2082, 2096, 2170, 2167, 2150, 2151
1247, 2098, 2151, 2150, 2173, 2102, 2155, 2154, 2174
1248, 2094, 2096, 2082, 2095, 2098, 2151, 2150, 2173
1249, 2094, 2096, 2151, 2098, 2101, 2158, 2155, 2102
1250, 145, 147, 153, 152, 2097, 2109, 2175, 2145
1251, 147, 185, 192, 153, 2109, 2110, 2176, 2175
1252, 152, 153, 715, 712, 2145, 2175, 2177, 2147
1253, 153, 192, 745, 715, 2175, 2176, 2178, 2177
1254, 2179, 2180, 2097, 2181, 2182, 2183, 2184, 2185
1255, 2186, 2179, 2181, 2187, 2188, 2182, 2185, 2189
1256, 2190, 2186, 2187, 2109, 2191, 2188, 2189, 2192
1257, 2193, 2194, 2180, 2179, 2195, 2196, 2183, 2182
1258, 2197, 2193, 2179, 2186, 2198, 2195, 2182, 2188
1259, 2199, 2197, 2186, 2190, 2200, 2198, 2188, 2191
1260, 2201, 2145, 2194, 2193, 2202, 2203, 2196, 2195
1261, 2204, 2201, 2193, 2197, 2205, 2202, 2195, 2198
1262, 2175, 2204, 2197, 2199, 2206, 2205, 2198, 2200
1263, 2201, 2145, 2097, 2181, 2193, 2194, 2180, 2179
1264, 2175, 2204, 2187, 2109, 2199, 2197, 2186, 2190
1265, 2204, 2201, 2181, 2187, 2197, 2193, 2179, 2186
1266, 2175, 2145, 2097, 2109, 2204, 2201, 2181, 2187
1267, 2180, 2156, 2096, 2097, 2183, 2157, 2158, 2184
1268, 2194, 2165, 2156, 2180, 2196, 2166, 2157, 2183
1269, 2145, 2144, 2096, 2097, 2194, 2165, 2156, 2180
1270, 2145, 2144, 2165, 2194, 2203, 2172, 2166, 2196
1271, 2130, 2181, 2097, 2093, 2131, 2185, 2184, 2132
1272, 2133, 2187, 2181, 2130, 2134, 2189, 2185, 2131
1273, 2106, 2109, 2097, 2093, 2133, 2187, 2181, 2130
1274, 2106, 2109, 2187, 2133, 2135, 2192, 2189, 2134
1275, 2207, 2190, 2109, 2110, 2208, 2191, 2192, 2209
1276, 2210, 2199, 2190, 2207, 2211, 2200, 2191, 2208
1277, 2176, 2175, 2199, 2210, 2212, 2206, 2200, 2211
1278, 2176, 2175, 2109, 2110, 2210, 2199, 2190, 2207
1279, 2176, 2210, 2207, 2110, 2212, 2211, 2208, 2209
1280, 173, 174, 171, 172, 2107, 2213, 2214, 2108
1281, 174, 178, 177, 171, 2213, 2215, 2216, 2214
1282, 172, 171, 184, 185, 2108, 2214, 2217, 2110
1283, 171, 177, 187, 184, 2214, 2216, 2218, 2217
1284, 2107, 2213, 2214, 2108, 2140, 2219, 2220, 2143
1285, 2213, 2215, 2216, 2214, 2219, 2221, 2222, 2220
1286, 2108, 2214, 2217, 2110, 2143, 2220, 2223, 2209
1287, 2214, 2216, 2218, 2217, 2220, 2222, 2224, 2223
1288, 178, 181, 180, 177, 2215, 230, 229, 2216
1289, 177, 180, 189, 187, 2216, 229, 233, 2218
1290, 2215, 230, 229, 2216, 2221, 238, 237, 2222
1291, 2216, 229, 233, 2218, 2222, 237, 241, 2224
1292, 185, 184, 191, 192, 2110, 2217, 2225, 2176
1293, 184, 187, 194, 191, 2217, 2218, 2226, 2225
1294, 192, 191, 746, 745, 2176, 2225, 2227, 2178
1295, 191, 194, 750, 746, 2225, 2226, 2228, 2227
1296, 2110, 2217, 2225, 2176, 2209, 2223, 2229, 2212
1297, 2217, 2218, 2226, 2225, 2223, 2224, 2230, 2229
1298, 2176, 2225, 2227, 2178, 2212, 2229, 2231, 2232
1299, 2225, 2226, 2228, 2227, 2229, 2230, 2233, 2231
1300, 187, 189, 195, 194, 2218, 233, 235, 2226
1301, 194, 195, 753, 750, 2226, 235, 794, 2228
1302, 2218, 233, 235, 2226, 2224, 241, 243, 2230
1303, 2226, 235, 794, 2228, 2230, 243, 802, 2233
1304, 2140, 2219, 2220, 2143, 2234, 2235, 2236, 2237
1305, 2114, 2129, 2238, 2239, 2139, 2142, 2240, 2241
1306, 2129, 2135, 2242, 2238, 2142, 2143, 2243, 2240
1307, 2239, 2238, 2244, 2245, 2241, 2240, 2246, 2247
1308, 2238, 2242, 2248, 2244, 2240, 2243, 2249, 2246
1309, 2245, 2244, 2250, 2251, 2247, 2246, 2252, 2253
1310, 2244, 2248, 2254, 2250, 2246, 2249, 2237, 2252
1311, 2240, 2243, 2249, 2246, 2142, 2143, 2237, 2252
1312, 2241, 2240, 2246, 2247, 2139, 2142, 2252, 2253
1313, 2139, 2142, 2252, 2253, 2140, 2143, 2237, 2234
1314, 2219, 2221, 2222, 2220, 2235, 2255, 2256, 2236
1315, 2143, 2220, 2223, 2209, 2237, 2236, 2257, 2258
1316, 2220, 2222, 2224, 2223, 2236, 2256, 2259, 2257
1317, 2234, 2235, 2236, 2237, 2260, 2261, 2262, 2263
1318, 2235, 2255, 2256, 2236, 2261, 2264, 2265, 2262
1319, 2237, 2236, 2257, 2258, 2263, 2262, 2266, 2267
1320, 2236, 2256, 2259, 2257, 2262, 2265, 2268, 2266
1321, 2221, 238, 237, 2222, 2255, 246, 245, 2256
1322, 2222, 237, 241, 2224, 2256, 245, 248, 2259
1323, 2255, 246, 245, 2256, 2264, 1243, 1244, 2265
1324, 2256, 245, 248, 2259, 2265, 1244, 1250, 2268
1325, 2209, 2223, 2229, 2212, 2258, 2257, 2269, 2270
1326, 2192, 2191, 2271, 2272, 2209, 2208, 2273, 2274
1327, 2191, 2200, 2275, 2271, 2208, 2211, 2276, 2273
1328, 2200, 2206, 2277, 2275, 2211, 2212, 2278, 2276
1329, 2272, 2271, 2279, 2280, 2274, 2273, 2281, 2282
1330, 2271, 2275, 2283, 2279, 2273, 2276, 2284, 2281
1331, 2275, 2277, 2285, 2283, 2276, 2278, 2286, 2284
1332, 2280, 2279, 2287, 2288, 2282, 2281, 2289, 2258
1333, 2279, 2283, 2290, 2287, 2281, 2284, 2291, 2289
1334, 2283, 2285, 2292, 2290, 2284, 2286, 2270, 2291
1335, 2274, 2273, 2281, 2282, 2209, 2208, 2289, 2258
1336, 2276, 2278, 2286, 2284, 2211, 2212, 2270, 2291
1337, 2273, 2276, 2284, 2281, 2208, 2211, 2291, 2289
1338, 2208, 2211, 2291, 2289, 2209, 2212, 2270, 2258
1339, 2135, 2192, 2272, 2242, 2143, 2209, 2274, 2243
1340, 2242, 2272, 2280, 2248, 2243, 2274, 2282, 2249
1341, 2243, 2274, 2282, 2249, 2143, 2209, 2258, 2237
1342, 2248, 2280, 2288, 2254, 2249, 2282, 2258, 2237
1343, 2223, 2224, 2230, 2229, 2257, 2259, 2293, 2269
1344, 2212, 2229, 2231, 2232, 2270, 2269, 2294, 2295
1345, 2229, 2230, 2233, 2231, 2269, 2293, 2296, 2294
1346, 2258, 2257, 2269, 2270, 2267, 2266, 2297, 2298
1347, 2257, 2259, 2293, 2269, 2266, 2268, 2299, 2297
1348, 2270, 2269, 2294, 2295, 2298, 2297, 2300, 2301
1349, 2269, 2293, 2296, 2294, 2297, 2299, 2302, 2300
1350, 2224, 241, 243, 2230, 2259, 248, 250, 2293
1351, 2230, 243, 802, 2233, 2293, 250, 810, 2296
1352, 2259, 248, 250, 2293, 2268, 1250, 1254, 2299
1353, 2293, 250, 810, 2296, 2299, 1254, 1761, 2302
1354, 216, 2303, 2304, 780, 213, 2305, 2306, 779
1355, 214, 2307, 2305, 213, 258, 2308, 2309, 261
1356, 213, 2305, 2306, 779, 261, 2309, 2310, 820
1357, 2305, 2311, 2312, 2306, 2309, 2313, 2314, 2310
1358, 2311, 2315, 2316, 2312, 2313, 2317, 2318, 2314
1359, 257, 2319, 2308, 258, 256, 2320, 2321, 255
1360, 256, 2320, 2321, 255, 265, 2322, 2323, 264
1361, 2320, 2324, 2325, 2321, 2322, 2326, 2327, 2323
1362, 2324, 2328, 2329, 2325, 2326, 2330, 2331, 2327
1363, 2328, 2332, 2333, 2329, 2330, 2334, 2335, 2331
1364, 258, 2308, 2309, 261, 255, 2321, 2336, 260
1365, 2308, 2337, 2313, 2309, 2321, 2325, 2338, 2336
1366, 261, 2309, 2310, 820, 260, 2336, 2339, 819
1367, 2309, 2313, 2314, 2310, 2336, 2338, 2340, 2339
1368, 255, 2321, 2336, 260, 264, 2323, 2341, 267
1369, 2321, 2325, 2338, 2336, 2323, 2327, 2342, 2341
1370, 260, 2336, 2339, 819, 267, 2341, 2343, 829
1371, 2336, 2338, 2340, 2339, 2341, 2342, 2344, 2343
1372, 2337, 2345, 2317, 2313, 2325, 2329, 2346, 2338
1373, 2345, 2347, 2348, 2317, 2329, 2333, 2349, 2346
1374, 2313, 2317, 2318, 2314, 2338, 2346, 2350, 2340
1375, 2317, 2348, 2351, 2318, 2346, 2349, 2352, 2350
1376, 2325, 2329, 2346, 2338, 2327, 2331, 2353, 2342
1377, 2329, 2333, 2349, 2346, 2331, 2335, 2354, 2353
1378, 2338, 2346, 2350, 2340, 2342, 2353, 2355, 2344
1379, 2346, 2349, 2352, 2350, 2353, 2354, 2356, 2355
1380, 265, 2322, 2323, 264, 270, 2357, 2358, 274
1381, 2322, 2326, 2327, 2323, 2357, 2359, 2360, 2358
1382, 271, 2361, 2357, 270, 1284, 2362, 2363, 1285
1383, 270, 2357, 2358, 274, 1285, 2363, 2364, 1289
1384, 2357, 2359, 2360, 2358, 2363, 2365, 2366, 2364
1385, 2326, 2330, 2331, 2327, 2359, 2367, 2368, 2360
1386, 2330, 2334, 2335, 2331, 2367, 2369, 2370, 2368
1387, 2359, 2367, 2368, 2360, 2365, 2371, 2372, 2366
1388, 2367, 2369, 2370, 2368, 2371, 2373, 2374, 2372
1389, 264, 2323, 2341, 267, 274, 2358, 2375, 275
1390, 2323, 2327, 2342, 2341, 2358, 2360, 2376, 2375
1391, 267, 2341, 2343, 829, 275, 2375, 2377, 834
1392, 2341, 2342, 2344, 2343, 2375, 2376, 2378, 2377
1393, 274, 2358, 2375, 275, 1289, 2364, 2379, 1292
1394, 2358, 2360, 2376, 2375, 2364, 2366, 2380, 2379
1395, 275, 2375, 2377, 834, 1292, 2379, 2381, 1800
1396, 2375, 2376, 2378, 2377, 2379, 2380, 2382, 2381
1397, 2327, 2331, 2353, 2342, 2360, 2368, 2383, 2376
1398, 2331, 2335, 2354, 2353, 2368, 2370, 2384, 2383
1399, 2342, 2353, 2355, 2344, 2376, 2383, 2385, 2378
1400, 2353, 2354, 2356, 2355, 2383, 2384, 2386, 2385
1401, 2360, 2368, 2383, 2376, 2366, 2372, 2387, 2380
1402, 2368, 2370, 2384, 2383, 2372, 2374, 2388, 2387
1403, 2376, 2383, 2385, 2378, 2380, 2387, 2389, 2382
1404, 2383, 2384, 2386, 2385, 2387, 2388, 2390, 2389
1405, 2332, 2391, 2392, 2333, 2334, 2393, 2394, 2335
1406, 2347, 2395, 2396, 2348, 2333, 2392, 2397, 2349
1407, 2395, 2398, 2399, 2396, 2392, 2400, 2401, 2397
1408, 2348, 2396, 2402, 2351, 2349, 2397, 2403, 2352
1409, 2396, 2399, 2404, 2402, 2397, 2401, 2405, 2403
1410, 2333, 2392, 2397, 2349, 2335, 2394, 2406, 2354
1411, 2392, 2400, 2401, 2397, 2394, 2407, 2408, 2406
1412, 2349, 2397, 2403, 2352, 2354, 2406, 2409, 2356
1413, 2397, 2401, 2405, 2403, 2406, 2408, 2410, 2409
1414, 2399, 2411, 2412, 2404, 2401, 2413, 2414, 2405
1415, 2411, 2415, 2416, 2412, 2413, 2417, 2418, 2414
1416, 2400, 2419, 2413, 2401, 2407, 2420, 2421, 2408
1417, 2419, 2422, 2417, 2413, 2420, 2423, 2424, 2421
1418, 2401, 2413, 2414, 2405, 2408, 2421, 2425, 2410
1419, 2413, 2417, 2418, 2414, 2421, 2424, 2426, 2425
1420, 2334, 2393, 2394, 2335, 2369, 2427, 2428, 2370
1421, 2393, 2429, 2407, 2394, 2427, 2430, 2431, 2428
1422, 2369, 2427, 2428, 2370, 2373, 2432, 2433, 2374
1423, 2427, 2430, 2431, 2428, 2432, 2434, 2435, 2433
1424, 2429, 2436, 2420, 2407, 2430, 2437, 2438, 2431
1425, 2436, 2439, 2423, 2420, 2437, 2440, 2441, 2438
1426, 2430, 2437, 2438, 2431, 2434, 2442, 2443, 2435
1427, 2437, 2440, 2441, 2438, 2442, 2444, 2445, 2443
1428, 2335, 2394, 2406, 2354, 2370, 2428, 2446, 2384
1429, 2394, 2407, 2408, 2406, 2428, 2431, 2447, 2446
1430, 2354, 2406, 2409, 2356, 2384, 2446, 2448, 2386
1431, 2406, 2408, 2410, 2409, 2446, 2447, 2449, 2448
1432, 2370, 2428, 2446, 2384, 2374, 2433, 2450, 2388
1433, 2428, 2431, 2447, 2446, 2433, 2435, 2451, 2450
1434, 2384, 2446, 2448, 2386, 2388, 2450, 2452, 2390
1435, 2446, 2447, 2449, 2448, 2450, 2451, 2453, 2452
1436, 2407, 2420, 2421, 2408, 2431, 2438, 2454, 2447
1437, 2420, 2423, 2424, 2421, 2438, 2441, 2455, 2454
1438, 2408, 2421, 2425, 2410, 2447, 2454, 2456, 2449
1439, 2421, 2424, 2426, 2425, 2454, 2455, 2457, 2456
1440, 2431, 2438, 2454, 2447, 2435, 2443, 2458, 2451
1441, 2438, 2441, 2455, 2454, 2443, 2445, 2459, 2458
1442, 2447, 2454, 2456, 2449, 2451, 2458, 2460, 2453
1443, 2454, 2455, 2457, 2456, 2458, 2459, 2461, 2460
1444, 2415, 2462, 2463, 2416, 2417, 2464, 2465, 2418
1445, 2462, 2466, 2467, 2463, 2464, 2468, 2469, 2465
1446, 2422, 2470, 2464, 2417, 2423, 2471, 2472, 2424
1447, 2470, 2473, 2468, 2464, 2471, 2474, 2475, 2472
1448, 2417, 2464, 2465, 2418, 2424, 2472, 2476, 2426
1449, 2464, 2468, 2469, 2465, 2472, 2475, 2477, 2476
1450, 2466, 2478, 2479, 2467, 2468, 2480, 2481, 2469
1451, 2478, 2482, 2483, 2479, 2480, 2484, 2485, 2481
1452, 2473, 2486, 2480, 2468, 2474, 2487, 2488, 2475
1453, 2486, 2489, 2484, 2480, 2487, 2490, 2491, 2488
1454, 2468, 2480, 2481, 2469, 2475, 2488, 2492, 2477
1455, 2480, 2484, 2485, 2481, 2488, 2491, 2493, 2492
1456, 2439, 2494, 2471, 2423, 2440, 2495, 2496, 2441
1457, 2494, 2497, 2474, 2471, 2495, 2498, 2499, 2496
1458, 2440, 2495, 2496, 2441, 2444, 2500, 2501, 2445
1459, 2495, 2498, 2499, 2496, 2500, 2502, 2503, 2501
1460, 2497, 2504, 2487, 2474, 2498, 2505, 2506, 2499
1461, 2504, 2507, 2490, 2487, 2505, 2508, 2509, 2506
1462, 2498, 2505, 2506, 2499, 2502, 2510, 2511, 2503
1463, 2505, 2508, 2509, 2506, 2510, 2512, 2513, 2511
1464, 2423, 2471, 2472, 2424, 2441, 2496, 2514, 2455
1465, 2471, 2474, 2475, 2472, 2496, 2499, 2515, 2514
1466, 2424, 2472, 2476, 2426, 2455, 2514, 2516, 2457
1467, 2472, 2475, 2477, 2476, 2514, 2515, 2517, 2516
1468, 2441, 2496, 2514, 2455, 2445, 2501, 2518, 2459
1469, 2496, 2499, 2515, 2514, 2501, 2503, 2519, 2518
1470, 2455, 2514, 2516, 2457, 2459, 2518, 2520, 2461
1471, 2514, 2515, 2517, 2516, 2518, 2519, 2521, 2520
1472, 2474, 2487, 2488, 2475, 2499, 2506, 2522, 2515
1473, 2487, 2490, 2491, 2488, 2506, 2509, 2523, 2522
1474, 2475, 2488, 2492, 2477, 2515, 2522, 2524, 2517
1475, 2488, 2491, 2493, 2492, 2522, 2523, 2525, 2524
1476, 2499, 2506, 2522, 2515, 2503, 2511, 2526, 2519
1477, 2506, 2509, 2523, 2522, 2511, 2513, 2527, 2526
1478, 2515, 2522, 2524, 2517, 2519, 2526, 2528, 2521
1479, 2522, 2523, 2525, 2524, 2526, 2527, 2529, 2528
1480, 2482, 2530, 2531, 2483, 2484, 2532, 2533, 2485
1481, 2489, 2534, 2532, 2484, 2490, 2535, 2536, 2491
1482, 2534, 2537, 2538, 2532, 2535, 2539, 2540, 2536
1483, 2484, 2532, 2533, 2485, 2491, 2536, 2541, 2493
1484, 2532, 2538, 2542, 2533, 2536, 2540, 2543, 2541
1485, 2544, 2545, 2546, 2547, 2548, 2549, 2550, 2551
1486, 2537, 2552, 2548, 2538, 2539, 2553, 2554, 2540
1487, 2552, 2555, 2549, 2548, 2553, 2556, 2557, 2554
1488, 2538, 2548, 2551, 2542, 2540, 2554, 2558, 2543
1489, 2548, 2549, 2550, 2551, 2554, 2557, 2559, 2558
1490, 2507, 2560, 2535, 2490, 2508, 2561, 2562, 2509
1491, 2560, 2563, 2539, 2535, 2561, 2564, 2565, 2562
1492, 2508, 2561, 2562, 2509, 2512, 2566, 2567, 2513
1493, 2561, 2564, 2565, 2562, 2566, 2568, 2569, 2567
1494, 2563, 2570, 2553, 2539, 2564, 2571, 2572, 2565
1495, 2570, 2573, 2556, 2553, 2571, 2574, 2575, 2572
1496, 2564, 2571, 2572, 2565, 2568, 2576, 2577, 2569
1497, 2571, 2574, 2575, 2572, 2576, 2578, 2579, 2577
1498, 2490, 2535, 2536, 2491, 2509, 2562, 2580, 2523
1499, 2535, 2539, 2540, 2536, 2562, 2565, 2581, 2580
1500, 2491, 2536, 2541, 2493, 2523, 2580, 2582, 2525
1501, 2536, 2540, 2543, 2541, 2580, 2581, 2583, 2582
1502, 2509, 2562, 2580, 2523, 2513, 2567, 2584, 2527
1503, 2562, 2565, 2581, 2580, 2567, 2569, 2585, 2584
1504, 2523, 2580, 2582, 2525, 2527, 2584, 2586, 2529
1505, 2580, 2581, 2583, 2582, 2584, 2585, 2587, 2586
1506, 2539, 2553, 2554, 2540, 2565, 2572, 2588, 2581
1507, 2553, 2556, 2557, 2554, 2572, 2575, 2589, 2588
1508, 2540, 2554, 2558, 2543, 2581, 2588, 2590, 2583
1509, 2554, 2557, 2559, 2558, 2588, 2589, 2591, 2590
1510, 2565, 2572, 2588, 2581, 2569, 2577, 2592, 2585
1511, 2572, 2575, 2589, 2588, 2577, 2579, 2593, 2592
1512, 2581, 2588, 2590, 2583, 2585, 2592, 2594, 2587
1513, 2588, 2589, 2591, 2590, 2592, 2593, 2595, 2594
1514, 2545, 2596, 2597, 2546, 2549, 2598, 2599, 2550
1515, 2596, 2600, 2601, 2597, 2598, 2602, 2603, 2599
1516, 2555, 2604, 2598, 2549, 2556, 2605, 2606, 2557
1517, 2604, 2607, 2602, 2598, 2605, 2608, 2609, 2606
1518, 2549, 2598, 2599, 2550, 2557, 2606, 2610, 2559
1519, 2598, 2602, 2603, 2599, 2606, 2609, 2611, 2610
1520, 2600, 2612, 2613, 2601, 2602, 2614, 2615, 2603
1521, 2612, 2616, 2617, 2613, 2614, 2618, 2619, 2615
1522, 2607, 2620, 2614, 2602, 2608, 2621, 2622, 2609
1523, 2620, 2623, 2618, 2614, 2621, 2624, 2625, 2622
1524, 2602, 2614, 2615, 2603, 2609, 2622, 2626, 2611
1525, 2614, 2618, 2619, 2615, 2622, 2625, 2627, 2626
1526, 2573, 2628, 2605, 2556, 2574, 2629, 2630, 2575
1527, 2628, 2631, 2608, 2605, 2629, 2632, 2633, 2630
1528, 2574, 2629, 2630, 2575, 2578, 2634, 2635, 2579
1529, 2629, 2632, 2633, 2630, 2634, 2636, 2637, 2635
1530, 2631, 2638, 2621, 2608, 2632, 2639, 2640, 2633
1531, 2638, 2641, 2624, 2621, 2639, 2642, 2643, 2640
1532, 2632, 2639, 2640, 2633, 2636, 2644, 2645, 2637
1533, 2639, 2642, 2643, 2640, 2644, 2646, 2647, 2645
1534, 2556, 2605, 2606, 2557, 2575, 2630, 2648, 2589
1535, 2605, 2608, 2609, 2606, 2630, 2633, 2649, 2648
1536, 2557, 2606, 2610, 2559, 2589, 2648, 2650, 2591
1537, 2606, 2609, 2611, 2610, 2648, 2649, 2651, 2650
1538, 2575, 2630, 2648, 2589, 2579, 2635, 2652, 2593
1539, 2630, 2633, 2649, 2648, 2635, 2637, 2653, 2652
1540, 2589, 2648, 2650, 2591, 2593, 2652, 2654, 2595
1541, 2648, 2649, 2651, 2650, 2652, 2653, 2655, 2654
1542, 2608, 2621, 2622, 2609, 2633, 2640, 2656, 2649
1543, 2621, 2624, 2625, 2622, 2640, 2643, 2657, 2656
1544, 2609, 2622, 2626, 2611, 2649, 2656, 2658, 2651
1545, 2622, 2625, 2627, 2626, 2656, 2657, 2659, 2658
1546, 2633, 2640, 2656, 2649, 2637, 2645, 2660, 2653
1547, 2640, 2643, 2657, 2656, 2645, 2647, 2661, 2660
1548, 2649, 2656, 2658, 2651, 2653, 2660, 2662, 2655
1549, 2656, 2657, 2659, 2658, 2660, 2661, 2663, 2662
1550, 2616, 2664, 2665, 2617, 2618, 2666, 2667, 2619
1551, 2664, 2668, 2669, 2665, 2666, 2670, 2671, 2667
1552, 2623, 2672, 2666, 2618, 2624, 2673, 2674, 2625
1553, 2672, 2675, 2670, 2666, 2673, 2676, 2677, 2674
1554, 2618, 2666, 2667, 2619, 2625, 2674, 2678, 2627
1555, 2666, 2670, 2671, 2667, 2674, 2677, 2679, 2678
1556, 2668, 2680, 2681, 2669, 2670, 2682, 2683, 2671
1557, 2680, 2684, 2685, 2681, 2682, 2686, 2687, 2683
1558, 2675, 2688, 2682, 2670, 2676, 2689, 2690, 2677
1559, 2688, 2691, 2686, 2682, 2689, 2692, 2693, 2690
1560, 2670, 2682, 2683, 2671, 2677, 2690, 2694, 2679
1561, 2682, 2686, 2687, 2683, 2690, 2693, 2695, 2694
1562, 2641, 2696, 2673, 2624, 2642, 2697, 2698, 2643
1563, 2696, 2699, 2676, 2673, 2697, 2700, 2701, 2698
1564, 2642, 2697, 2698, 2643, 2646, 2702, 2703, 2647
1565, 2697, 2700, 2701, 2698, 2702, 2704, 2705, 2703
1566, 2699, 2706, 2689, 2676, 2700, 2707, 2708, 2701
1567, 2706, 2709, 2692, 2689, 2707, 2710, 2711, 2708
1568, 2700, 2707, 2708, 2701, 2704, 2712, 2713, 2705
1569, 2707, 2710, 2711, 2708, 2712, 2714, 2715, 2713
1570, 2624, 2673, 2674, 2625, 2643, 2698, 2716, 2657
1571, 2673, 2676, 2677, 2674, 2698, 2701, 2717, 2716
1572, 2625, 2674, 2678, 2627, 2657, 2716, 2718, 2659
1573, 2674, 2677, 2679, 2678, 2716, 2717, 2719, 2718
1574, 2643, 2698, 2716, 2657, 2647, 2703, 2720, 2661
1575, 2698, 2701, 2717, 2716, 2703, 2705, 2721, 2720
1576, 2657, 2716, 2718, 2659, 2661, 2720, 2722, 2663
1577, 2716, 2717, 2719, 2718, 2720, 2721, 2723, 2722
1578, 2676, 2689, 2690, 2677, 2701, 2708, 2724, 2717
1579, 2689, 2692, 2693, 2690, 2708, 2711, 2725, 2724
1580, 2677, 2690, 2694, 2679, 2717, 2724, 2726, 2719
1581, 2690, 2693, 2695, 2694, 2724, 2725, 2727, 2726
1582, 2701, 2708, 2724, 2717, 2705, 2713, 2728, 2721
1583, 2708, 2711, 2725, 2724, 2713, 2715, 2729, 2728
1584, 2717, 2724, 2726, 2719, 2721, 2728, 2730, 2723
1585, 2724, 2725, 2727, 2726, 2728, 2729, 2731, 2730
1586, 2732, 2733, 2734, 2735, 2736, 2737, 2738, 2739
1587, 2740, 2735, 2741, 2742, 2743, 2739, 2744, 2745
1588, 2735, 2734, 2746, 2741, 2739, 2738, 2747, 2744
1589, 2748, 501, 972, 2749, 2734, 502, 975, 2746
1590, 2733, 503, 502, 2734, 2737, 540, 547, 2738
1591, 2734, 502, 975, 2746, 2738, 547, 1039, 2747
1592, 2750, 2751, 2752, 2753, 2754, 2755, 2756, 2757
1593, 2751, 2758, 2759, 2752, 2755, 2760, 2761, 2756
1594, 2762, 2763, 2764, 2765, 2766, 2753, 2767, 2768
1595, 2684, 2765, 2769, 2685, 2686, 2768, 2770, 2687
1596, 2765, 2764, 2771, 2769, 2768, 2767, 2772, 2770
1597, 2691, 2766, 2768, 2686, 2692, 2773, 2774, 2693
1598, 2766, 2753, 2767, 2768, 2773, 2757, 2775, 2774
1599, 2686, 2768, 2770, 2687, 2693, 2774, 2776, 2695
1600, 2768, 2767, 2772, 2770, 2774, 2775, 2777, 2776
1601, 2763, 2778, 2779, 2764, 2753, 2752, 2780, 2767
1602, 2778, 2781, 2743, 2779, 2752, 2759, 2782, 2780
1603, 2764, 2779, 2783, 2771, 2767, 2780, 2784, 2772
1604, 2779, 2743, 2745, 2783, 2780, 2782, 2785, 2784
1605, 2753, 2752, 2780, 2767, 2757, 2756, 2786, 2775
1606, 2752, 2759, 2782, 2780, 2756, 2761, 2787, 2786
1607, 2767, 2780, 2784, 2772, 2775, 2786, 2788, 2777
1608, 2780, 2782, 2785, 2784, 2786, 2787, 2789, 2788
1609, 2709, 2790, 2773, 2692, 2710, 2791, 2792, 2711
1610, 2790, 2754, 2757, 2773, 2791, 2793, 2794, 2792
1611, 2710, 2791, 2792, 2711, 2714, 2795, 2796, 2715
1612, 2791, 2793, 2794, 2792, 2795, 2797, 2798, 2796
1613, 2754, 2755, 2756, 2757, 2793, 2799, 2800, 2794
1614, 2755, 2760, 2761, 2756, 2799, 2801, 2802, 2800
1615, 2793, 2799, 2800, 2794, 2797, 2803, 2804, 2798
1616, 2799, 2801, 2802, 2800, 2803, 2805, 2806, 2804
1617, 2692, 2773, 2774, 2693, 2711, 2792, 2807, 2725
1618, 2773, 2757, 2775, 2774, 2792, 2794, 2808, 2807
1619, 2693, 2774, 2776, 2695, 2725, 2807, 2809, 2727
1620, 2774, 2775, 2777, 2776, 2807, 2808, 2810, 2809
1621, 2711, 2792, 2807, 2725, 2715, 2796, 2811, 2729
1622, 2792, 2794, 2808, 2807, 2796, 2798, 2812, 2811
1623, 2725, 2807, 2809, 2727, 2729, 2811, 2813, 2731
1624, 2807, 2808, 2810, 2809, 2811, 2812, 2814, 2813
1625, 2757, 2756, 2786, 2775, 2794, 2800, 2815, 2808
1626, 2756, 2761, 2787, 2786, 2800, 2802, 2816, 2815
1627, 2775, 2786, 2788, 2777, 2808, 2815, 2817, 2810
1628, 2786, 2787, 2789, 2788, 2815, 2816, 2818, 2817
1629, 2794, 2800, 2815, 2808, 2798, 2804, 2819, 2812
1630, 2800, 2802, 2816, 2815, 2804, 2806, 2820, 2819
1631, 2808, 2815, 2817, 2810, 2812, 2819, 2821, 2814
1632, 2815, 2816, 2818, 2817, 2819, 2820, 2822, 2821
1633, 2758, 2823, 2824, 2759, 2760, 2825, 2826, 2761
1634, 2823, 2827, 2828, 2824, 2825, 2829, 2830, 2826
1635, 2831, 539, 540, 2737, 2827, 542, 541, 2828
1636, 2827, 542, 541, 2828, 2829, 551, 550, 2830
1637, 2781, 2736, 2739, 2743, 2759, 2824, 2832, 2782
1638, 2736, 2737, 2738, 2739, 2824, 2828, 2833, 2832
1639, 2743, 2739, 2744, 2745, 2782, 2832, 2834, 2785
1640, 2739, 2738, 2747, 2744, 2832, 2833, 2835, 2834
1641, 2759, 2824, 2832, 2782, 2761, 2826, 2836, 2787
1642, 2824, 2828, 2833, 2832, 2826, 2830, 2837, 2836
1643, 2782, 2832, 2834, 2785, 2787, 2836, 2838, 2789
1644, 2832, 2833, 2835, 2834, 2836, 2837, 2839, 2838
1645, 2737, 540, 547, 2738, 2828, 541, 548, 2833
1646, 2738, 547, 1039, 2747, 2833, 548, 1042, 2835
1647, 2828, 541, 548, 2833, 2830, 550, 554, 2837
1648, 2833, 548, 1042, 2835, 2837, 554, 1051, 2839
1649, 2760, 2825, 2826, 2761, 2801, 2840, 2841, 2802
1650, 2825, 2829, 2830, 2826, 2840, 2842, 2843, 2841
1651, 2801, 2840, 2841, 2802, 2805, 2844, 2845, 2806
1652, 2840, 2842, 2843, 2841, 2844, 2846, 2847, 2845
1653, 2829, 551, 550, 2830, 2842, 557, 561, 2843
1654, 2842, 557, 561, 2843, 2846, 1416, 1422, 2847
1655, 2761, 2826, 2836, 2787, 2802, 2841, 2848, 2816
1656, 2826, 2830, 2837, 2836, 2841, 2843, 2849, 2848
1657, 2787, 2836, 2838, 2789, 2816, 2848, 2850, 2818
1658, 2836, 2837, 2839, 2838, 2848, 2849, 2851, 2850
1659, 2802, 2841, 2848, 2816, 2806, 2845, 2852, 2820
1660, 2841, 2843, 2849, 2848, 2845, 2847, 2853, 2852
1661, 2816, 2848, 2850, 2818, 2820, 2852, 2854, 2822
1662, 2848, 2849, 2851, 2850, 2852, 2853, 2855, 2854
1663, 2830, 550, 554, 2837, 2843, 561, 563, 2849
1664, 2837, 554, 1051, 2839, 2849, 563, 1057, 2851
1665, 2843, 561, 563, 2849, 2847, 1422, 1426, 2853
1666, 2849, 563, 1057, 2851, 2853, 1426, 1885, 2855
1667, 572, 486, 2856, 573, 571, 2857, 2858, 570
1668, 486, 485, 2859, 2856, 2857, 2860, 2861, 2858
1669, 573, 2856, 2862, 577, 570, 2858, 2863, 576
1670, 2856, 2859, 2864, 2862, 2858, 2861, 2865, 2863
1671, 571, 2857, 2858, 570, 584, 2866, 2867, 583
1672, 2857, 2860, 2861, 2858, 2866, 2868, 2869, 2867
1673, 570, 2858, 2863, 576, 583, 2867, 2870, 586
1674, 2858, 2861, 2865, 2863, 2867, 2869, 2871, 2870
1675, 485, 489, 2872, 2859, 2860, 2873, 2874, 2861
1676, 489, 628, 2875, 2872, 2873, 2876, 2877, 2874
1677, 2859, 2872, 2878, 2864, 2861, 2874, 2879, 2865
1678, 2860, 2873, 2874, 2861, 2868, 2880, 2881, 2869
1679, 2861, 2874, 2879, 2865, 2869, 2881, 2882, 2871
1680, 577, 2862, 2883, 580, 576, 2863, 2884, 579
1681, 2862, 2864, 2885, 2883, 2863, 2865, 2886, 2884
1682, 580, 2883, 2887, 1072, 579, 2884, 2888, 1071
1683, 2883, 2885, 2889, 2887, 2884, 2886, 2890, 2888
1684, 576, 2863, 2884, 579, 586, 2870, 2891, 588
1685, 2863, 2865, 2886, 2884, 2870, 2871, 2892, 2891
1686, 579, 2884, 2888, 1071, 588, 2891, 2893, 1084
1687, 2884, 2886, 2890, 2888, 2891, 2892, 2894, 2893
1688, 2864, 2878, 2895, 2885, 2865, 2879, 2896, 2886
1689, 2897, 2898, 2878, 2899, 2900, 2901, 2902, 2903
1690, 2904, 2897, 2899, 2905, 2906, 2900, 2903, 2907
1691, 2908, 2904, 2905, 2895, 2909, 2906, 2907, 2910
1692, 2911, 2912, 2898, 2897, 2913, 2914, 2901, 2900
1693, 2915, 2911, 2897, 2904, 2916, 2913, 2900, 2906
1694, 2917, 2915, 2904, 2908, 2918, 2916, 2906, 2909
1695, 2919, 2879, 2912, 2911, 2920, 2921, 2914, 2913
1696, 2922, 2919, 2911, 2915, 2923, 2920, 2913, 2916
1697, 2896, 2922, 2915, 2917, 2924, 2923, 2916, 2918
1698, 2919, 2879, 2878, 2899, 2911, 2912, 2898, 2897
1699, 2896, 2922, 2905, 2895, 2917, 2915, 2904, 2908
1700, 2922, 2919, 2899, 2905, 2915, 2911, 2897, 2904
1701, 2896, 2879, 2878, 2895, 2922, 2919, 2899, 2905
1702, 2898, 2925, 2872, 2878, 2901, 2926, 2875, 2902
1703, 2912, 2927, 2925, 2898, 2914, 2928, 2926, 2901
1704, 2879, 2874, 2927, 2912, 2921, 2877, 2928, 2914
1705, 2927, 2874, 2872, 2925, 2928, 2877, 2875, 2926
1706, 2879, 2874, 2872, 2878, 2912, 2927, 2925, 2898
1707, 2899, 2878, 2929, 2930, 2903, 2902, 2931, 2932
1708, 2905, 2899, 2930, 2933, 2907, 2903, 2932, 2934
1709, 2895, 2905, 2933, 2935, 2910, 2907, 2934, 2936
1710, 2895, 2878, 2929, 2935, 2905, 2899, 2930, 2933
1711, 2933, 2930, 2929, 2935, 2934, 2932, 2931, 2936
1712, 2885, 2895, 2937, 2889, 2886, 2896, 2938, 2890
1713, 2865, 2879, 2896, 2886, 2871, 2882, 2939, 2892
1714, 2886, 2896, 2938, 2890, 2892, 2939, 2940, 2894
1715, 584, 2866, 2867, 583, 591, 2941, 2942, 590
1716, 2866, 2868, 2869, 2867, 2941, 2943, 2944, 2942
1717, 583, 2867, 2870, 586, 590, 2942, 2945, 593
1718, 2867, 2869, 2871, 2870, 2942, 2944, 2946, 2945
1719, 591, 2941, 2942, 590, 1446, 2947, 2948, 1447
1720, 2941, 2943, 2944, 2942, 2947, 2949, 2950, 2948
1721, 590, 2942, 2945, 593, 1447, 2948, 2951, 1451
1722, 2942, 2944, 2946, 2945, 2948, 2950, 2952, 2951
1723, 2953, 2954, 2955, 2956, 2957, 2958, 2959, 2960
1724, 2961, 2953, 2956, 2881, 2962, 2957, 2960, 2963
1725, 2964, 2965, 2953, 2961, 2966, 2967, 2957, 2962
1726, 2968, 2969, 2965, 2964, 2970, 2971, 2967, 2966
1727, 2968, 2969, 2956, 2881, 2964, 2965, 2953, 2961
1728, 2955, 2880, 2873, 2972, 2959, 2973, 2876, 2974
1729, 2956, 2955, 2972, 2975, 2960, 2959, 2974, 2976
1730, 2881, 2956, 2975, 2874, 2963, 2960, 2976, 2877
1731, 2881, 2880, 2873, 2874, 2956, 2955, 2972, 2975
1732, 2975, 2972, 2873, 2874, 2976, 2974, 2876, 2877
1733, 2869, 2881, 2882, 2871, 2944, 2968, 2977, 2946
1734, 2944, 2968, 2977, 2946, 2950, 2978, 2979, 2952
1735, 586, 2870, 2891, 588, 593, 2945, 2980, 594
1736, 2870, 2871, 2892, 2891, 2945, 2946, 2981, 2980
1737, 588, 2891, 2893, 1084, 594, 2980, 2982, 1091
1738, 2891, 2892, 2894, 2893, 2980, 2981, 2983, 2982
1739, 593, 2945, 2980, 594, 1451, 2951, 2984, 1454
1740, 2945, 2946, 2981, 2980, 2951, 2952, 2985, 2984
1741, 594, 2980, 2982, 1091, 1454, 2984, 2986, 1916
1742, 2980, 2981, 2983, 2982, 2984, 2985, 2987, 2986
1743, 2871, 2882, 2939, 2892, 2946, 2977, 2988, 2981
1744, 2989, 2990, 2882, 2991, 2992, 2993, 2994, 2995
1745, 2996, 2989, 2991, 2997, 2998, 2992, 2995, 2999
1746, 3000, 2996, 2997, 2939, 3001, 2998, 2999, 3002
1747, 3003, 3004, 2990, 2989, 3005, 3006, 2993, 2992
1748, 3007, 3003, 2989, 2996, 3008, 3005, 2992, 2998
1749, 3009, 3007, 2996, 3000, 3010, 3008, 2998, 3001
1750, 3011, 2977, 3004, 3003, 3012, 3013, 3006, 3005
1751, 3014, 3011, 3003, 3007, 3015, 3012, 3005, 3008
1752, 2988, 3014, 3007, 3009, 3016, 3015, 3008, 3010
1753, 3011, 2977, 2882, 2991, 3003, 3004, 2990, 2989
1754, 2988, 3014, 2997, 2939, 3009, 3007, 2996, 3000
1755, 3014, 3011, 2991, 2997, 3007, 3003, 2989, 2996
1756, 2988, 2977, 2882, 2939, 3014, 3011, 2991, 2997
1757, 2990, 2961, 2881, 2882, 2993, 2962, 2963, 2994
1758, 3004, 2964, 2961, 2990, 3006, 2966, 2962, 2993
1759, 2977, 2968, 2881, 2882, 3004, 2964, 2961, 2990
1760, 2977, 2968, 2964, 3004, 3013, 2970, 2966, 3006
1761, 2919, 2991, 2882, 2879, 2920, 2995, 2994, 2921
1762, 2922, 2997, 2991, 2919, 2923, 2999, 2995, 2920
1763, 2896, 2939, 2882, 2879, 2922, 2997, 2991, 2919
1764, 2896, 2939, 2997, 2922, 2924, 3002, 2999, 2923
1765, 2892, 2939, 2940, 2894, 2981, 2988, 3017, 2983
1766, 2946, 2977, 2988, 2981, 2952, 2979, 3018, 2985
1767, 2981, 2988, 3017, 2983, 2985, 3018, 3019, 2987
1768, 628, 627, 3020, 2875, 2876, 3021, 3022, 2877
1769, 627, 631, 3023, 3020, 3021, 3024, 3025, 3022
1770, 2902, 3026, 3027, 2901, 2875, 3028, 3029, 2926
1771, 3026, 3030, 3031, 3027, 3028, 3032, 3033, 3029
1772, 3030, 3034, 3035, 3031, 3032, 3020, 3036, 3033
1773, 2901, 3027, 3037, 2914, 2926, 3029, 3038, 2928
1774, 3027, 3031, 3039, 3037, 3029, 3033, 3040, 3038
1775, 3031, 3035, 3041, 3039, 3033, 3036, 3042, 3040
1776, 2914, 3037, 3043, 2921, 2928, 3038, 3044, 2877
1777, 3037, 3039, 3045, 3043, 3038, 3040, 3046, 3044
1778, 3039, 3041, 3047, 3045, 3040, 3042, 3022, 3046
1779, 2926, 3029, 3038, 2928, 2875, 3028, 3044, 2877
1780, 3033, 3036, 3042, 3040, 3032, 3020, 3022, 3046
1781, 3029, 3033, 3040, 3038, 3028, 3032, 3046, 3044
1782, 3028, 3032, 3046, 3044, 2875, 3020, 3022, 2877
1783, 2921, 3043, 3048, 2994, 2877, 3044, 3049, 2963
1784, 3043, 3045, 3050, 3048, 3044, 3046, 3051, 3049
1785, 3045, 3047, 3052, 3050, 3046, 3022, 3053, 3051
1786, 2931, 3054, 3026, 2902, 3055, 3056, 3028, 2875
1787, 3054, 3057, 3030, 3026, 3056, 3058, 3032, 3028
1788, 3057, 3059, 3034, 3030, 3058, 3060, 3020, 3032
1789, 3056, 3058, 3032, 3028, 3055, 3060, 3020, 2875
1790, 2931, 3059, 3057, 3054, 3055, 3060, 3058, 3056
1791, 3061, 2976, 2974, 3062, 3063, 2960, 2959, 3064
1792, 3065, 3061, 3062, 3066, 3067, 3063, 3064, 3068
1793, 3069, 3065, 3066, 3070, 3071, 3067, 3068, 3072
1794, 3044, 2877, 2976, 3061, 3049, 2963, 2960, 3063
1795, 3046, 3044, 3061, 3065, 3051, 3049, 3063, 3067
1796, 3022, 3046, 3065, 3069, 3053, 3051, 3067, 3071
1797, 3044, 2877, 2876, 3073, 3061, 2976, 2974, 3062
1798, 3022, 3046, 3074, 3021, 3069, 3065, 3066, 3070
1799, 3046, 3044, 3073, 3074, 3065, 3061, 3062, 3066
1800, 3022, 2877, 2876, 3021, 3046, 3044, 3073, 3074
1801, 631, 633, 3075, 3023, 3024, 3076, 3077, 3025
1802, 3078, 3079, 3080, 3081, 3023, 3082, 3083, 3084
1803, 3079, 3085, 3086, 3080, 3082, 3087, 3088, 3083
1804, 3085, 3089, 3090, 3086, 3087, 3075, 3091, 3088
1805, 3081, 3080, 3092, 3093, 3084, 3083, 3094, 3095
1806, 3080, 3086, 3096, 3092, 3083, 3088, 3097, 3094
1807, 3086, 3090, 3098, 3096, 3088, 3091, 3099, 3097
1808, 3093, 3092, 3100, 3101, 3095, 3094, 3102, 3025
1809, 3092, 3096, 3103, 3100, 3094, 3097, 3104, 3102
1810, 3096, 3098, 3105, 3103, 3097, 3099, 3077, 3104
1811, 3084, 3083, 3094, 3095, 3023, 3082, 3102, 3025
1812, 3088, 3091, 3099, 3097, 3087, 3075, 3077, 3104
1813, 3083, 3088, 3097, 3094, 3082, 3087, 3104, 3102
1814, 3082, 3087, 3104, 3102, 3023, 3075, 3077, 3025
1815, 3034, 3078, 3081, 3035, 3020, 3023, 3084, 3036
1816, 3035, 3081, 3093, 3041, 3036, 3084, 3095, 3042
1817, 3036, 3084, 3095, 3042, 3020, 3023, 3025, 3022
1818, 3041, 3093, 3101, 3047, 3042, 3095, 3025, 3022
1819, 3101, 3100, 3106, 3107, 3025, 3102, 3108, 3109
1820, 3100, 3103, 3110, 3106, 3102, 3104, 3111, 3108
1821, 3112, 3113, 3079, 3078, 3114, 3115, 3082, 3023
1822, 3113, 3116, 3085, 3079, 3115, 3117, 3087, 3082
1823, 3116, 3118, 3089, 3085, 3117, 3119, 3075, 3087
1824, 3115, 3117, 3087, 3082, 3114, 3119, 3075, 3023
1825, 3112, 3118, 3116, 3113, 3114, 3119, 3117, 3115
1826, 3102, 3025, 3120, 3121, 3108, 3109, 3122, 3123
1827, 3025, 3022, 3021, 3024, 3120, 3069, 3070, 3124
1828, 3025, 3022, 3069, 3120, 3109, 3053, 3071, 3122
1829, 3125, 3126, 3127, 3128, 3129, 3130, 3131, 3132
1830, 3126, 3133, 3134, 3127, 3130, 3135, 3136, 3131
1831, 3128, 3127, 3137, 3138, 3132, 3131, 3139, 3140
1832, 3089, 3125, 3128, 3090, 3075, 3129, 3132, 3091
1833, 3090, 3128, 3138, 3098, 3091, 3132, 3140, 3099
1834, 3141, 3142, 3126, 3125, 3143, 3144, 3130, 3129
1835, 3142, 3145, 3133, 3126, 3144, 3146, 3135, 3130
1836, 3141, 3147, 3145, 3142, 3143, 3148, 3146, 3144
1837, 3147, 3149, 3150, 3151, 3152, 3153, 3154, 3155
1838, 689, 707, 706, 686, 2086, 2085, 3156, 3157
1839, 3158, 3159, 2086, 3157, 3160, 3161, 2085, 3156
1840, 707, 708, 705, 706, 2085, 2146, 3162, 3156
1841, 708, 712, 711, 705, 2146, 2147, 3163, 3162
1842, 706, 705, 718, 719, 3156, 3162, 3164, 3165
1843, 705, 711, 721, 718, 3162, 3163, 3166, 3164
1844, 3167, 3161, 2085, 3168, 3169, 3170, 3171, 3172
1845, 3173, 3167, 3168, 3174, 3175, 3169, 3172, 3176
1846, 3177, 3173, 3174, 2146, 3178, 3175, 3176, 3179
1847, 3180, 3160, 3161, 3167, 3181, 3182, 3170, 3169
1848, 3183, 3180, 3167, 3173, 3184, 3181, 3169, 3175
1849, 3185, 3183, 3173, 3177, 3186, 3184, 3175, 3178
1850, 3187, 3188, 3180, 3183, 3189, 3190, 3181, 3184
1851, 3162, 3187, 3183, 3185, 3191, 3189, 3184, 3186
1852, 3188, 3156, 2085, 3168, 3180, 3160, 3161, 3167
1853, 3162, 3187, 3174, 2146, 3185, 3183, 3173, 3177
1854, 3187, 3188, 3168, 3174, 3183, 3180, 3167, 3173
1855, 3162, 3156, 2085, 2146, 3187, 3188, 3168, 3174
1856, 2167, 3168, 2085, 2083, 2168, 3172, 3171, 2169
1857, 2170, 3174, 3168, 2167, 2171, 3176, 3172, 2168
1858, 2144, 2146, 2085, 2083, 2170, 3174, 3168, 2167
1859, 2144, 2146, 3174, 2170, 2172, 3179, 3176, 2171
1860, 712, 715, 714, 711, 2147, 2177, 3192, 3163
1861, 715, 745, 744, 714, 2177, 2178, 3193, 3192
1862, 711, 714, 723, 721, 3163, 3192, 3194, 3166
1863, 714, 744, 757, 723, 3192, 3193, 3195, 3194
1864, 3196, 3197, 2147, 3198, 3199, 3200, 3201, 3202
1865, 3203, 3196, 3198, 3204, 3205, 3199, 3202, 3206
1866, 3207, 3203, 3204, 2177, 3208, 3205, 3206, 3209
1867, 3210, 3211, 3197, 3196, 3212, 3213, 3200, 3199
1868, 3214, 3210, 3196, 3203, 3215, 3212, 3199, 3205
1869, 3216, 3214, 3203, 3207, 3217, 3215, 3205, 3208
1870, 3218, 3163, 3211, 3210, 3219, 3220, 3213, 3212
1871, 3221, 3218, 3210, 3214, 3222, 3219, 3212, 3215
1872, 3192, 3221, 3214, 3216, 3223, 3222, 3215, 3217
1873, 3218, 3163, 2147, 3198, 3210, 3211, 3197, 3196
1874, 3192, 3221, 3204, 2177, 3216, 3214, 3203, 3207
1875, 3221, 3218, 3198, 3204, 3214, 3210, 3196, 3203
1876, 3192, 3163, 2147, 2177, 3221, 3218, 3198, 3204
1877, 3197, 3177, 2146, 2147, 3200, 3178, 3179, 3201
1878, 3211, 3185, 3177, 3197, 3213, 3186, 3178, 3200
1879, 3163, 3162, 2146, 2147, 3211, 3185, 3177, 3197
1880, 3163, 3162, 3185, 3211, 3220, 3191, 3186, 3213
1881, 2201, 3198, 2147, 2145, 2202, 3202, 3201, 2203
1882, 2204, 3204, 3198, 2201, 2205, 3206, 3202, 2202
1883, 2175, 2177, 2147, 2145, 2204, 3204, 3198, 2201
1884, 2175, 2177, 3204, 2204, 2206, 3209, 3206, 2205
1885, 3224, 3207, 2177, 2178, 3225, 3208, 3209, 2232
1886, 3226, 3216, 3207, 3224, 3227, 3217, 3208, 3225
1887, 3193, 3192, 3216, 3226, 3228, 3223, 3217, 3227
1888, 3193, 3192, 2177, 2178, 3226, 3216, 3207, 3224
1889, 3193, 3226, 3224, 2178, 3228, 3227, 3225, 2232
1890, 718, 721, 728, 725, 3164, 3166, 3229, 3230
1891, 3231, 3232, 3233, 3164, 3234, 3235, 3236, 3237
1892, 3187, 3233, 3238, 3188, 3189, 3236, 3239, 3190
1893, 3162, 3164, 3165, 3156, 3187, 3233, 3238, 3188
1894, 3162, 3164, 3233, 3187, 3191, 3237, 3236, 3189
1895, 721, 723, 729, 728, 3166, 3194, 3240, 3229
1896, 723, 757, 764, 729, 3194, 3195, 3241, 3240
1897, 3242, 3243, 3166, 3244, 3245, 3246, 3247, 3248
1898, 3249, 3242, 3244, 3250, 3251, 3245, 3248, 3252
1899, 3253, 3249, 3250, 3194, 3254, 3251, 3252, 3255
1900, 3256, 3257, 3243, 3242, 3258, 3259, 3246, 3245
1901, 3260, 3256, 3242, 3249, 3261, 3258, 3245, 3251
1902, 3262, 3260, 3249, 3253, 3263, 3261, 3251, 3254
1903, 3240, 3264, 3260, 3262, 3265, 3266, 3261, 3263
1904, 3267, 3229, 3166, 3244, 3256, 3257, 3243, 3242
1905, 3240, 3264, 3250, 3194, 3262, 3260, 3249, 3253
1906, 3264, 3267, 3244, 3250, 3260, 3256, 3242, 3249
1907, 3240, 3229, 3166, 3194, 3264, 3267, 3244, 3250
1908, 3243, 3231, 3164, 3166, 3246, 3234, 3237, 3247
1909, 3229, 3230, 3164, 3166, 3257, 3268, 3231, 3243
1910, 3218, 3244, 3166, 3163, 3219, 3248, 3247, 3220
1911, 3221, 3250, 3244, 3218, 3222, 3252, 3248, 3219
1912, 3192, 3194, 3166, 3163, 3221, 3250, 3244, 3218
1913, 3192, 3194, 3250, 3221, 3223, 3255, 3252, 3222
1914, 3269, 3253, 3194, 3195, 3270, 3254, 3255, 3271
1915, 3272, 3262, 3253, 3269, 3273, 3263, 3254, 3270
1916, 3241, 3240, 3262, 3272, 3274, 3265, 3263, 3273
1917, 3241, 3240, 3194, 3195, 3272, 3262, 3253, 3269
1918, 3241, 3272, 3269, 3195, 3274, 3273, 3270, 3271
1919, 745, 746, 743, 744, 2178, 2227, 3275, 3193
1920, 746, 750, 749, 743, 2227, 2228, 3276, 3275
1921, 744, 743, 756, 757, 3193, 3275, 3277, 3195
1922, 743, 749, 759, 756, 3275, 3276, 3278, 3277
1923, 2178, 2227, 3275, 3193, 2232, 2231, 3279, 3228
1924, 2227, 2228, 3276, 3275, 2231, 2233, 3280, 3279
1925, 3193, 3275, 3277, 3195, 3228, 3279, 3281, 3271
1926, 3275, 3276, 3278, 3277, 3279, 3280, 3282, 3281
1927, 750, 753, 752, 749, 2228, 794, 793, 3276
1928, 749, 752, 761, 759, 3276, 793, 797, 3278
1929, 2228, 794, 793, 3276, 2233, 802, 801, 3280
1930, 3276, 793, 797, 3278, 3280, 801, 805, 3282
1931, 757, 756, 763, 764, 3195, 3277, 3283, 3241
1932, 756, 759, 766, 763, 3277, 3278, 3284, 3283
1933, 3195, 3277, 3283, 3241, 3271, 3281, 3285, 3274
1934, 3277, 3278, 3284, 3283, 3281, 3282, 3286, 3285
1935, 759, 761, 767, 766, 3278, 797, 799, 3284
1936, 3278, 797, 799, 3284, 3282, 805, 807, 3286
1937, 2232, 2231, 3279, 3228, 2295, 2294, 3287, 3288
1938, 3209, 3208, 3289, 3290, 2232, 3225, 3291, 3292
1939, 3208, 3217, 3293, 3289, 3225, 3227, 3294, 3291
1940, 3217, 3223, 3295, 3293, 3227, 3228, 3296, 3294
1941, 3290, 3289, 3297, 3298, 3292, 3291, 3299, 3300
1942, 3289, 3293, 3301, 3297, 3291, 3294, 3302, 3299
1943, 3293, 3295, 3303, 3301, 3294, 3296, 3304, 3302
1944, 3298, 3297, 3305, 3306, 3300, 3299, 3307, 2295
1945, 3297, 3301, 3308, 3305, 3299, 3302, 3309, 3307
1946, 3301, 3303, 3310, 3308, 3302, 3304, 3288, 3309
1947, 3292, 3291, 3299, 3300, 2232, 3225, 3307, 2295
1948, 3294, 3296, 3304, 3302, 3227, 3228, 3288, 3309
1949, 3291, 3294, 3302, 3299, 3225, 3227, 3309, 3307
1950, 3225, 3227, 3309, 3307, 2232, 3228, 3288, 2295
1951, 2206, 3209, 3290, 2277, 2212, 2232, 3292, 2278
1952, 2277, 3290, 3298, 2285, 2278, 3292, 3300, 2286
1953, 2278, 3292, 3300, 2286, 2212, 2232, 2295, 2270
1954, 2285, 3298, 3306, 2292, 2286, 3300, 2295, 2270
1955, 2231, 2233, 3280, 3279, 2294, 2296, 3311, 3287
1956, 3228, 3279, 3281, 3271, 3288, 3287, 3312, 3313
1957, 3279, 3280, 3282, 3281, 3287, 3311, 3314, 3312
1958, 2295, 2294, 3287, 3288, 2301, 2300, 3315, 3316
1959, 2294, 2296, 3311, 3287, 2300, 2302, 3317, 3315
1960, 3288, 3287, 3312, 3313, 3316, 3315, 3318, 3319
1961, 3287, 3311, 3314, 3312, 3315, 3317, 3320, 3318
1962, 2233, 802, 801, 3280, 2296, 810, 809, 3311
1963, 3280, 801, 805, 3282, 3311, 809, 812, 3314
1964, 2296, 810, 809, 3311, 2302, 1761, 1762, 3317
1965, 3311, 809, 812, 3314, 3317, 1762, 1768, 3320
1966, 3271, 3281, 3285, 3274, 3313, 3312, 3321, 3322
1967, 3255, 3254, 3323, 3324, 3271, 3270, 3325, 3326
1968, 3254, 3263, 3327, 3323, 3270, 3273, 3328, 3325
1969, 3324, 3323, 3329, 3330, 3326, 3325, 3331, 3332
1970, 3323, 3327, 3333, 3329, 3325, 3328, 3334, 3331
1971, 3330, 3329, 3335, 3336, 3332, 3331, 3337, 3313
1972, 3329, 3333, 3338, 3335, 3331, 3334, 3339, 3337
1973, 3326, 3325, 3331, 3332, 3271, 3270, 3337, 3313
1974, 3325, 3328, 3334, 3331, 3270, 3273, 3339, 3337
1975, 3270, 3273, 3339, 3337, 3271, 3274, 3322, 3313
1976, 3223, 3255, 3324, 3295, 3228, 3271, 3326, 3296
1977, 3295, 3324, 3330, 3303, 3296, 3326, 3332, 3304
1978, 3296, 3326, 3332, 3304, 3228, 3271, 3313, 3288
1979, 3303, 3330, 3336, 3310, 3304, 3332, 3313, 3288
1980, 3281, 3282, 3286, 3285, 3312, 3314, 3340, 3321
1981, 3313, 3312, 3321, 3322, 3319, 3318, 3341, 3342
1982, 3312, 3314, 3340, 3321, 3318, 3320, 3343, 3341
1983, 3282, 805, 807, 3286, 3314, 812, 814, 3340
1984, 3314, 812, 814, 3340, 3320, 1768, 1772, 3343
1985, 779, 2306, 3344, 778, 820, 2310, 3345, 821
1986, 2306, 2312, 3346, 3344, 2310, 2314, 3347, 3345
1987, 820, 2310, 3345, 821, 819, 2339, 3348, 818
1988, 2310, 2314, 3347, 3345, 2339, 2340, 3349, 3348
1989, 821, 3345, 3350, 825, 818, 3348, 3351, 824
1990, 819, 2339, 3348, 818, 829, 2343, 3352, 828
1991, 2339, 2340, 3349, 3348, 2343, 2344, 3353, 3352
1992, 818, 3348, 3351, 824, 828, 3352, 3354, 831
1993, 3348, 3349, 3355, 3351, 3352, 3353, 3356, 3354
1994, 2314, 2318, 3357, 3347, 2340, 2350, 3358, 3349
1995, 2318, 2351, 3359, 3357, 2350, 2352, 3360, 3358
1996, 2340, 2350, 3358, 3349, 2344, 2355, 3361, 3353
1997, 2350, 2352, 3360, 3358, 2355, 2356, 3362, 3361
1998, 3349, 3358, 3363, 3355, 3353, 3361, 3364, 3356
1999, 3358, 3360, 3365, 3363, 3361, 3362, 3366, 3364
2000, 829, 2343, 3352, 828, 834, 2377, 3367, 833
2001, 2343, 2344, 3353, 3352, 2377, 2378, 3368, 3367
2002, 828, 3352, 3354, 831, 833, 3367, 3369, 836
2003, 3352, 3353, 3356, 3354, 3367, 3368, 3370, 3369
2004, 834, 2377, 3367, 833, 1800, 2381, 3371, 1801
2005, 2377, 2378, 3368, 3367, 2381, 2382, 3372, 3371
2006, 833, 3367, 3369, 836, 1801, 3371, 3373, 1805
2007, 3367, 3368, 3370, 3369, 3371, 3372, 3374, 3373
2008, 2344, 2355, 3361, 3353, 2378, 2385, 3375, 3368
2009, 2355, 2356, 3362, 3361, 2385, 2386, 3376, 3375
2010, 3353, 3361, 3364, 3356, 3368, 3375, 3377, 3370
2011, 3361, 3362, 3366, 3364, 3375, 3376, 3378, 3377
2012, 2378, 2385, 3375, 3368, 2382, 2389, 3379, 3372
2013, 2385, 2386, 3376, 3375, 2389, 2390, 3380, 3379
2014, 3368, 3375, 3377, 3370, 3372, 3379, 3381, 3374
2015, 3375, 3376, 3378, 3377, 3379, 3380, 3382, 3381
2016, 2351, 2402, 3383, 3359, 2352, 2403, 3384, 3360
2017, 2402, 2404, 3385, 3383, 2403, 2405, 3386, 3384
2018, 2352, 2403, 3384, 3360, 2356, 2409, 3387, 3362
2019, 2403, 2405, 3386, 3384, 2409, 2410, 3388, 3387
2020, 2405, 2414, 3389, 3386, 2410, 2425, 3390, 3388
2021, 2414, 2418, 3391, 3389, 2425, 2426, 3392, 3390
2022, 2356, 2409, 3387, 3362, 2386, 2448, 3393, 3376
2023, 2409, 2410, 3388, 3387, 2448, 2449, 3394, 3393
2024, 3362, 3387, 3395, 3366, 3376, 3393, 3396, 3378
2025, 3387, 3388, 3397, 3395, 3393, 3394, 3398, 3396
2026, 2386, 2448, 3393, 3376, 2390, 2452, 3399, 3380
2027, 2448, 2449, 3394, 3393, 2452, 2453, 3400, 3399
2028, 3376, 3393, 3396, 3378, 3380, 3399, 3401, 3382
2029, 3393, 3394, 3398, 3396, 3399, 3400, 3402, 3401
2030, 2410, 2425, 3390, 3388, 2449, 2456, 3403, 3394
2031, 2425, 2426, 3392, 3390, 2456, 2457, 3404, 3403
2032, 3388, 3390, 3405, 3397, 3394, 3403, 3406, 3398
2033, 3390, 3392, 3407, 3405, 3403, 3404, 3408, 3406
2034, 2449, 2456, 3403, 3394, 2453, 2460, 3409, 3400
2035, 2456, 2457, 3404, 3403, 2460, 2461, 3410, 3409
2036, 3394, 3403, 3406, 3398, 3400, 3409, 3411, 3402
2037, 3403, 3404, 3408, 3406, 3409, 3410, 3412, 3411
2038, 2418, 2465, 3413, 3391, 2426, 2476, 3414, 3392
2039, 2465, 2469, 3415, 3413, 2476, 2477, 3416, 3414
2040, 2469, 2481, 3417, 3415, 2477, 2492, 3418, 3416
2041, 2481, 2485, 3419, 3417, 2492, 2493, 3420, 3418
2042, 2426, 2476, 3414, 3392, 2457, 2516, 3421, 3404
2043, 2476, 2477, 3416, 3414, 2516, 2517, 3422, 3421
2044, 3392, 3414, 3423, 3407, 3404, 3421, 3424, 3408
2045, 3414, 3416, 3425, 3423, 3421, 3422, 3426, 3424
2046, 2457, 2516, 3421, 3404, 2461, 2520, 3427, 3410
2047, 2516, 2517, 3422, 3421, 2520, 2521, 3428, 3427
2048, 3404, 3421, 3424, 3408, 3410, 3427, 3429, 3412
2049, 3421, 3422, 3426, 3424, 3427, 3428, 3430, 3429
2050, 2477, 2492, 3418, 3416, 2517, 2524, 3431, 3422
2051, 2492, 2493, 3420, 3418, 2524, 2525, 3432, 3431
2052, 3416, 3418, 3433, 3425, 3422, 3431, 3434, 3426
2053, 3418, 3420, 3435, 3433, 3431, 3432, 3436, 3434
2054, 2517, 2524, 3431, 3422, 2521, 2528, 3437, 3428
2055, 2524, 2525, 3432, 3431, 2528, 2529, 3438, 3437
2056, 3422, 3431, 3434, 3426, 3428, 3437, 3439, 3430
2057, 3431, 3432, 3436, 3434, 3437, 3438, 3440, 3439
2058, 2485, 2533, 3441, 3419, 2493, 2541, 3442, 3420
2059, 2533, 2542, 3443, 3441, 2541, 2543, 3444, 3442
2060, 2542, 2551, 3445, 3443, 2543, 2558, 3446, 3444
2061, 2551, 2550, 3447, 3445, 2558, 2559, 3448, 3446
2062, 2493, 2541, 3442, 3420, 2525, 2582, 3449, 3432
2063, 2541, 2543, 3444, 3442, 2582, 2583, 3450, 3449
2064, 3420, 3442, 3451, 3435, 3432, 3449, 3452, 3436
2065, 3442, 3444, 3453, 3451, 3449, 3450, 3454, 3452
2066, 2525, 2582, 3449, 3432, 2529, 2586, 3455, 3438
2067, 2582, 2583, 3450, 3449, 2586, 2587, 3456, 3455
2068, 3432, 3449, 3452, 3436, 3438, 3455, 3457, 3440
2069, 3449, 3450, 3454, 3452, 3455, 3456, 3458, 3457
2070, 2543, 2558, 3446, 3444, 2583, 2590, 3459, 3450
2071, 2558, 2559, 3448, 3446, 2590, 2591, 3460, 3459
2072, 3444, 3446, 3461, 3453, 3450, 3459, 3462, 3454
2073, 3446, 3448, 3463, 3461, 3459, 3460, 3464, 3462
2074, 2583, 2590, 3459, 3450, 2587, 2594, 3465, 3456
2075, 2590, 2591, 3460, 3459, 2594, 2595, 3466, 3465
2076, 3450, 3459, 3462, 3454, 3456, 3465, 3467, 3458
2077, 3459, 3460, 3464, 3462, 3465, 3466, 3468, 3467
2078, 2550, 2599, 3469, 3447, 2559, 2610, 3470, 3448
2079, 2599, 2603, 3471, 3469, 2610, 2611, 3472, 3470
2080, 2603, 2615, 3473, 3471, 2611, 2626, 3474, 3472
2081, 2615, 2619, 3475, 3473, 2626, 2627, 3476, 3474
2082, 2559, 2610, 3470, 3448, 2591, 2650, 3477, 3460
2083, 2610, 2611, 3472, 3470, 2650, 2651, 3478, 3477
2084, 3448, 3470, 3479, 3463, 3460, 3477, 3480, 3464
2085, 3470, 3472, 3481, 3479, 3477, 3478, 3482, 3480
2086, 2591, 2650, 3477, 3460, 2595, 2654, 3483, 3466
2087, 2650, 2651, 3478, 3477, 2654, 2655, 3484, 3483
2088, 3460, 3477, 3480, 3464, 3466, 3483, 3485, 3468
2089, 3477, 3478, 3482, 3480, 3483, 3484, 3486, 3485
2090, 2611, 2626, 3474, 3472, 2651, 2658, 3487, 3478
2091, 2626, 2627, 3476, 3474, 2658, 2659, 3488, 3487
2092, 3472, 3474, 3489, 3481, 3478, 3487, 3490, 3482
2093, 3474, 3476, 3491, 3489, 3487, 3488, 3492, 3490
2094, 2651, 2658, 3487, 3478, 2655, 2662, 3493, 3484
2095, 2658, 2659, 3488, 3487, 2662, 2663, 3494, 3493
2096, 3478, 3487, 3490, 3482, 3484, 3493, 3495, 3486
2097, 3487, 3488, 3492, 3490, 3493, 3494, 3496, 3495
2098, 2619, 2667, 3497, 3475, 2627, 2678, 3498, 3476
2099, 2667, 2671, 3499, 3497, 2678, 2679, 3500, 3498
2100, 2671, 2683, 3501, 3499, 2679, 2694, 3502, 3500
2101, 2683, 2687, 3503, 3501, 2694, 2695, 3504, 3502
2102, 2627, 2678, 3498, 3476, 2659, 2718, 3505, 3488
2103, 2678, 2679, 3500, 3498, 2718, 2719, 3506, 3505
2104, 3476, 3498, 3507, 3491, 3488, 3505, 3508, 3492
2105, 3498, 3500, 3509, 3507, 3505, 3506, 3510, 3508
2106, 2659, 2718, 3505, 3488, 2663, 2722, 3511, 3494
2107, 2718, 2719, 3506, 3505, 2722, 2723, 3512, 3511
2108, 3488, 3505, 3508, 3492, 3494, 3511, 3513, 3496
2109, 3505, 3506, 3510, 3508, 3511, 3512, 3514, 3513
2110, 2679, 2694, 3502, 3500, 2719, 2726, 3515, 3506
2111, 2694, 2695, 3504, 3502, 2726, 2727, 3516, 3515
2112, 3500, 3502, 3517, 3509, 3506, 3515, 3518, 3510
2113, 3502, 3504, 3519, 3517, 3515, 3516, 3520, 3518
2114, 2719, 2726, 3515, 3506, 2723, 2730, 3521, 3512
2115, 2726, 2727, 3516, 3515, 2730, 2731, 3522, 3521
2116, 3506, 3515, 3518, 3510, 3512, 3521, 3523, 3514
2117, 3515, 3516, 3520, 3518, 3521, 3522, 3524, 3523
2118, 2741, 2746, 3525, 3526, 2744, 2747, 3527, 3528
2119, 2746, 975, 974, 3525, 2747, 1039, 1040, 3527
2120, 2769, 2771, 3529, 3530, 2770, 2772, 3531, 3532
2121, 2687, 2770, 3532, 3503, 2695, 2776, 3533, 3504
2122, 2770, 2772, 3531, 3532, 2776, 2777, 3534, 3533
2123, 2771, 2783, 3535, 3529, 2772, 2784, 3536, 3531
2124, 2783, 2745, 3537, 3535, 2784, 2785, 3538, 3536
2125, 2772, 2784, 3536, 3531, 2777, 2788, 3539, 3534
2126, 2784, 2785, 3538, 3536, 2788, 2789, 3540, 3539
2127, 3536, 3538, 3541, 3542, 3539, 3540, 3543, 3544
2128, 2695, 2776, 3533, 3504, 2727, 2809, 3545, 3516
2129, 2776, 2777, 3534, 3533, 2809, 2810, 3546, 3545
2130, 3504, 3533, 3547, 3519, 3516, 3545, 3548, 3520
2131, 3533, 3534, 3549, 3547, 3545, 3546, 3550, 3548
2132, 2727, 2809, 3545, 3516, 2731, 2813, 3551, 3522
2133, 2809, 2810, 3546, 3545, 2813, 2814, 3552, 3551
2134, 3516, 3545, 3548, 3520, 3522, 3551, 3553, 3524
2135, 3545, 3546, 3550, 3548, 3551, 3552, 3554, 3553
2136, 2777, 2788, 3539, 3534, 2810, 2817, 3555, 3546
2137, 2788, 2789, 3540, 3539, 2817, 2818, 3556, 3555
2138, 3534, 3539, 3544, 3549, 3546, 3555, 3557, 3550
2139, 3539, 3540, 3543, 3544, 3555, 3556, 3558, 3557
2140, 2810, 2817, 3555, 3546, 2814, 2821, 3559, 3552
2141, 2817, 2818, 3556, 3555, 2821, 2822, 3560, 3559
2142, 3546, 3555, 3557, 3550, 3552, 3559, 3561, 3554
2143, 3555, 3556, 3558, 3557, 3559, 3560, 3562, 3561
2144, 2745, 2744, 3528, 3537, 2785, 2834, 3563, 3538
2145, 2744, 2747, 3527, 3528, 2834, 2835, 3564, 3563
2146, 2785, 2834, 3563, 3538, 2789, 2838, 3565, 3540
2147, 2834, 2835, 3564, 3563, 2838, 2839, 3566, 3565
2148, 3538, 3563, 3567, 3541, 3540, 3565, 3568, 3543
2149, 3563, 3564, 3569, 3567, 3565, 3566, 3570, 3568
2150, 2747, 1039, 1040, 3527, 2835, 1042, 1041, 3564
2151, 3527, 1040, 1046, 3571, 3564, 1041, 1047, 3569
2152, 2835, 1042, 1041, 3564, 2839, 1051, 1050, 3566
2153, 3564, 1041, 1047, 3569, 3566, 1050, 1054, 3570
2154, 2789, 2838, 3565, 3540, 2818, 2850, 3572, 3556
2155, 2838, 2839, 3566, 3565, 2850, 2851, 3573, 3572
2156, 3540, 3565, 3568, 3543, 3556, 3572, 3574, 3558
2157, 3565, 3566, 3570, 3568, 3572, 3573, 3575, 3574
2158, 2818, 2850, 3572, 3556, 2822, 2854, 3576, 3560
2159, 2850, 2851, 3573, 3572, 2854, 2855, 3577, 3576
2160, 3556, 3572, 3574, 3558, 3560, 3576, 3578, 3562
2161, 3572, 3573, 3575, 3574, 3576, 3577, 3579, 3578
2162, 2839, 1051, 1050, 3566, 2851, 1057, 1056, 3573
2163, 3566, 1050, 1054, 3570, 3573, 1056, 1059, 3575
2164, 2851, 1057, 1056, 3573, 2855, 1885, 1886, 3577
2165, 3573, 1056, 1059, 3575, 3577, 1886, 1892, 3579
2166, 1072, 2887, 3580, 1073, 1071, 2888, 3581, 1070
2167, 2887, 2889, 3582, 3580, 2888, 2890, 3583, 3581
2168, 1073, 3580, 3584, 1077, 1070, 3581, 3585, 1076
2169, 3580, 3582, 3586, 3584, 3581, 3583, 3587, 3585
2170, 1071, 2888, 3581, 1070, 1084, 2893, 3588, 1083
2171, 2888, 2890, 3583, 3581, 2893, 2894, 3589, 3588
2172, 1070, 3581, 3585, 1076, 1083, 3588, 3590, 1086
2173, 2889, 2937, 3591, 3582, 2890, 2938, 3592, 3583
2174, 3593, 3594, 2937, 3595, 3596, 3597, 3598, 3599
2175, 3600, 3593, 3595, 3601, 3602, 3596, 3599, 3603
2176, 3604, 3600, 3601, 3591, 3605, 3602, 3603, 3606
2177, 3607, 3608, 3594, 3593, 3609, 3610, 3597, 3596
2178, 3611, 3607, 3593, 3600, 3612, 3609, 3596, 3602
2179, 3613, 3611, 3600, 3604, 3614, 3612, 3602, 3605
2180, 3615, 2938, 3608, 3607, 3616, 3617, 3610, 3609
2181, 3618, 3615, 3607, 3611, 3619, 3616, 3609, 3612
2182, 3592, 3618, 3611, 3613, 3620, 3619, 3612, 3614
2183, 3615, 2938, 2937, 3595, 3607, 3608, 3594, 3593
2184, 3592, 3618, 3601, 3591, 3613, 3611, 3600, 3604
2185, 3618, 3615, 3595, 3601, 3611, 3607, 3593, 3600
2186, 3592, 2938, 2937, 3591, 3618, 3615, 3595, 3601
2187, 3594, 2908, 2895, 2937, 3597, 2909, 2910, 3598
2188, 3608, 2917, 2908, 3594, 3610, 2918, 2909, 3597
2189, 2938, 2896, 2895, 2937, 3608, 2917, 2908, 3594
2190, 2938, 2896, 2917, 3608, 3617, 2924, 2918, 3610
2191, 3595, 2937, 3621, 3622, 3599, 3598, 3623, 3624
2192, 3601, 3595, 3622, 3625, 3603, 3599, 3624, 3626
2193, 3591, 3601, 3625, 3627, 3606, 3603, 3626, 3628
2194, 3591, 2937, 3621, 3627, 3601, 3595, 3622, 3625
2195, 3625, 3622, 3621, 3627, 3626, 3624, 3623, 3628
2196, 3629, 3604, 3591, 3630, 3631, 3605, 3606, 3632
2197, 3633, 3613, 3604, 3629, 3634, 3614, 3605, 3631
2198, 3635, 3592, 3613, 3633, 3636, 3620, 3614, 3634
2199, 3635, 3592, 3591, 3630, 3633, 3613, 3604, 3629
2200, 3635, 3633, 3629, 3630, 3636, 3634, 3631, 3632
2201, 3582, 3591, 3630, 3586, 3583, 3592, 3635, 3587
2202, 2890, 2938, 3592, 3583, 2894, 2940, 3637, 3589
2203, 1077, 3584, 1034, 1080, 1076, 3585, 3638, 1079
2204, 3584, 3586, 1033, 1034, 3585, 3587, 3639, 3638
2205, 1076, 3585, 3638, 1079, 1086, 3590, 3640, 1088
2206, 3586, 3630, 1036, 1033, 3587, 3635, 3641, 3639
2207, 3630, 3632, 1124, 1036, 3635, 3636, 3642, 3641
2208, 3643, 3644, 3587, 3645, 3646, 3647, 3648, 3649
2209, 3650, 3643, 3645, 3651, 3652, 3646, 3649, 3653
2210, 3654, 3650, 3651, 3635, 3655, 3652, 3653, 3656
2211, 3657, 3658, 3644, 3643, 3659, 3660, 3647, 3646
2212, 3661, 3657, 3643, 3650, 3662, 3659, 3646, 3652
2213, 3663, 3661, 3650, 3654, 3664, 3662, 3652, 3655
2214, 3665, 3639, 3658, 3657, 3666, 3667, 3660, 3659
2215, 3668, 3665, 3657, 3661, 3669, 3666, 3659, 3662
2216, 3641, 3668, 3661, 3663, 3670, 3669, 3662, 3664
2217, 3665, 3639, 3587, 3645, 3657, 3658, 3644, 3643
2218, 3641, 3668, 3651, 3635, 3663, 3661, 3650, 3654
2219, 3668, 3665, 3645, 3651, 3661, 3657, 3643, 3650
2220, 3641, 3639, 3587, 3635, 3668, 3665, 3645, 3651
2221, 3644, 3671, 3585, 3587, 3647, 3672, 3590, 3648
2222, 3658, 3673, 3671, 3644, 3660, 3674, 3672, 3647
2223, 3639, 3638, 3673, 3658, 3667, 3640, 3674, 3660
2224, 3673, 3638, 3585, 3671, 3674, 3640, 3590, 3672
2225, 3639, 3638, 3585, 3587, 3658, 3673, 3671, 3644
2226, 3645, 3587, 3583, 3675, 3649, 3648, 3589, 3676
2227, 3651, 3645, 3675, 3677, 3653, 3649, 3676, 3678
2228, 3635, 3651, 3677, 3592, 3656, 3653, 3678, 3637
2229, 3635, 3587, 3583, 3592, 3651, 3645, 3675, 3677
2230, 3677, 3675, 3583, 3592, 3678, 3676, 3589, 3637
2231, 1084, 2893, 3588, 1083, 1091, 2982, 3679, 1090
2232, 2893, 2894, 3589, 3588, 2982, 2983, 3680, 3679
2233, 1083, 3588, 3590, 1086, 1090, 3679, 3681, 1093
2234, 1091, 2982, 3679, 1090, 1916, 2986, 3682, 1917
2235, 2982, 2983, 3680, 3679, 2986, 2987, 3683, 3682
2236, 1090, 3679, 3681, 1093, 1917, 3682, 3684, 1921
2237, 2894, 2940, 3637, 3589, 2983, 3017, 3685, 3680
2238, 3686, 3687, 2940, 3688, 3689, 3690, 3691, 3692
2239, 3693, 3686, 3688, 3694, 3695, 3689, 3692, 3696
2240, 3697, 3693, 3694, 3637, 3698, 3695, 3696, 3699
2241, 3700, 3701, 3687, 3686, 3702, 3703, 3690, 3689
2242, 3704, 3700, 3686, 3693, 3705, 3702, 3689, 3695
2243, 3706, 3704, 3693, 3697, 3707, 3705, 3695, 3698
2244, 3708, 3017, 3701, 3700, 3709, 3710, 3703, 3702
2245, 3711, 3708, 3700, 3704, 3712, 3709, 3702, 3705
2246, 3685, 3711, 3704, 3706, 3713, 3712, 3705, 3707
2247, 3708, 3017, 2940, 3688, 3700, 3701, 3687, 3686
2248, 3685, 3711, 3694, 3637, 3706, 3704, 3693, 3697
2249, 3711, 3708, 3688, 3694, 3704, 3700, 3686, 3693
2250, 3685, 3017, 2940, 3637, 3711, 3708, 3688, 3694
2251, 3687, 3000, 2939, 2940, 3690, 3001, 3002, 3691
2252, 3701, 3009, 3000, 3687, 3703, 3010, 3001, 3690
2253, 3017, 2988, 2939, 2940, 3701, 3009, 3000, 3687
2254, 3017, 2988, 3009, 3701, 3710, 3016, 3010, 3703
2255, 3615, 3688, 2940, 2938, 3616, 3692, 3691, 3617
2256, 3618, 3694, 3688, 3615, 3619, 3696, 3692, 3616
2257, 3592, 3637, 2940, 2938, 3618, 3694, 3688, 3615
2258, 3592, 3637, 3694, 3618, 3620, 3699, 3696, 3619
2259, 3714, 3697, 3637, 3656, 3715, 3698, 3699, 3716
2260, 3717, 3706, 3697, 3714, 3718, 3707, 3698, 3715
2261, 3719, 3685, 3706, 3717, 3720, 3713, 3707, 3718
2262, 3648, 3649, 3721, 3722, 3589, 3676, 3723, 3724
2263, 3649, 3653, 3725, 3721, 3676, 3678, 3726, 3723
2264, 3653, 3656, 3714, 3725, 3678, 3637, 3697, 3726
2265, 3722, 3721, 3727, 3728, 3724, 3723, 3729, 3730
2266, 3721, 3725, 3731, 3727, 3723, 3726, 3732, 3729
2267, 3725, 3714, 3717, 3731, 3726, 3697, 3706, 3732
2268, 3728, 3727, 3733, 3734, 3730, 3729, 3735, 3680
2269, 3727, 3731, 3736, 3733, 3729, 3732, 3737, 3735
2270, 3731, 3717, 3719, 3736, 3732, 3706, 3685, 3737
2271, 3724, 3723, 3729, 3730, 3589, 3676, 3735, 3680
2272, 3726, 3697, 3706, 3732, 3678, 3637, 3685, 3737
2273, 3723, 3726, 3732, 3729, 3676, 3678, 3737, 3735
2274, 3676, 3678, 3737, 3735, 3589, 3637, 3685, 3680
2275, 3590, 3648, 3722, 3738, 3588, 3589, 3724, 3739
2276, 3738, 3722, 3728, 3740, 3739, 3724, 3730, 3741
2277, 3740, 3728, 3734, 3681, 3741, 3730, 3680, 3679
2278, 3590, 3738, 3740, 3681, 3588, 3739, 3741, 3679
2279, 3739, 3724, 3730, 3741, 3588, 3589, 3680, 3679
2280, 2983, 3017, 3685, 3680, 2987, 3019, 3742, 3683
2281, 1086, 3590, 3640, 1088, 1093, 3681, 3743, 1094
2282, 3744, 3738, 3590, 3672, 3745, 3722, 3648, 3647
2283, 3746, 3744, 3672, 3674, 3747, 3745, 3647, 3660
2284, 3748, 3740, 3738, 3744, 3749, 3728, 3722, 3745
2285, 3750, 3748, 3744, 3746, 3751, 3749, 3745, 3747
2286, 3752, 3681, 3740, 3748, 3753, 3734, 3728, 3749
2287, 3754, 3752, 3748, 3750, 3755, 3753, 3749, 3751
2288, 3752, 3681, 3590, 3672, 3748, 3740, 3738, 3744
2289, 3754, 3752, 3672, 3674, 3750, 3748, 3744, 3746
2290, 3743, 3681, 3590, 3640, 3754, 3752, 3672, 3674
2291, 1093, 3681, 3743, 1094, 1921, 3684, 3756, 1924
2292, 3632, 3757, 1123, 1124, 3636, 3758, 3759, 3642
2293, 3760, 3631, 3632, 3761, 3762, 3605, 3606, 3763
2294, 3764, 3760, 3761, 3765, 3766, 3762, 3763, 3767
2295, 3768, 3764, 3765, 3757, 3769, 3766, 3767, 3770
2296, 3771, 3634, 3631, 3760, 3772, 3614, 3605, 3762
2297, 3773, 3771, 3760, 3764, 3774, 3772, 3762, 3766
2298, 3775, 3773, 3764, 3768, 3776, 3774, 3766, 3769
2299, 3777, 3636, 3634, 3771, 3778, 3620, 3614, 3772
2300, 3779, 3777, 3771, 3773, 3780, 3778, 3772, 3774
2301, 3758, 3779, 3773, 3775, 3781, 3780, 3774, 3776
2302, 3777, 3636, 3632, 3761, 3771, 3634, 3631, 3760
2303, 3758, 3779, 3765, 3757, 3775, 3773, 3764, 3768
2304, 3779, 3777, 3761, 3765, 3773, 3771, 3760, 3764
2305, 3758, 3636, 3632, 3757, 3779, 3777, 3761, 3765
2306, 3782, 3716, 3636, 3777, 3783, 3699, 3620, 3778
2307, 3784, 3782, 3777, 3779, 3785, 3783, 3778, 3780
2308, 3786, 3784, 3779, 3758, 3787, 3785, 3780, 3781
2309, 3761, 3632, 3788, 3789, 3763, 3606, 3628, 3790
2310, 3765, 3761, 3789, 3791, 3767, 3763, 3790, 3792
2311, 3757, 3765, 3791, 3793, 3770, 3767, 3792, 3794
2312, 3757, 3632, 3788, 3793, 3765, 3761, 3789, 3791
2313, 3791, 3789, 3788, 3793, 3792, 3790, 3628, 3794
2314, 3757, 3795, 1126, 1123, 3758, 3796, 3797, 3759
2315, 3798, 3799, 3636, 3777, 3800, 3801, 3716, 3782
2316, 3802, 3798, 3777, 3779, 3803, 3800, 3782, 3784
2317, 3804, 3802, 3779, 3758, 3805, 3803, 3784, 3786
2318, 3806, 3807, 3799, 3798, 3808, 3809, 3801, 3800
2319, 3810, 3806, 3798, 3802, 3811, 3808, 3800, 3803
2320, 3812, 3810, 3802, 3804, 3813, 3811, 3803, 3805
2321, 3814, 3642, 3636, 3777, 3806, 3807, 3799, 3798
2322, 3759, 3815, 3779, 3758, 3812, 3810, 3802, 3804
2323, 3815, 3814, 3777, 3779, 3810, 3806, 3798, 3802
2324, 3759, 3642, 3636, 3758, 3815, 3814, 3777, 3779
2325, 3799, 3654, 3635, 3636, 3801, 3655, 3656, 3716
2326, 3807, 3663, 3654, 3799, 3809, 3664, 3655, 3801
2327, 3642, 3641, 3635, 3636, 3807, 3663, 3654, 3799
2328, 3642, 3641, 3663, 3807, 3816, 3670, 3664, 3809
2329, 3817, 3818, 3795, 3819, 3820, 3821, 3822, 3823
2330, 3824, 3817, 3819, 3825, 3826, 3820, 3823, 3827
2331, 3828, 3824, 3825, 3829, 3830, 3826, 3827, 3831
2332, 3832, 3833, 3818, 3817, 3834, 3835, 3821, 3820
2333, 3836, 3832, 3817, 3824, 3837, 3834, 3820, 3826
2334, 3838, 3836, 3824, 3828, 3839, 3837, 3826, 3830
2335, 3840, 3796, 3833, 3832, 3841, 3842, 3835, 3834
2336, 3843, 3840, 3832, 3836, 3844, 3841, 3834, 3837
2337, 3845, 3843, 3836, 3838, 3846, 3844, 3837, 3839
2338, 3840, 3796, 3795, 3819, 3832, 3833, 3818, 3817
2339, 3845, 3843, 3825, 3829, 3838, 3836, 3824, 3828
2340, 3843, 3840, 3819, 3825, 3836, 3832, 3817, 3824
2341, 3845, 3796, 3795, 3829, 3843, 3840, 3819, 3825
2342, 3818, 3768, 3757, 3795, 3821, 3769, 3770, 3822
2343, 3833, 3775, 3768, 3818, 3835, 3776, 3769, 3821
2344, 3796, 3758, 3757, 3795, 3833, 3775, 3768, 3818
2345, 3796, 3758, 3775, 3833, 3842, 3781, 3776, 3835
2346, 3847, 3848, 3796, 3840, 3849, 3850, 3842, 3841
2347, 3851, 3847, 3840, 3843, 3852, 3849, 3841, 3844
2348, 3819, 3795, 3853, 3854, 3823, 3822, 3855, 3856
2349, 3825, 3819, 3854, 3857, 3827, 3823, 3856, 3858
2350, 3829, 3825, 3857, 3859, 3831, 3827, 3858, 3860
2351, 3829, 3795, 3853, 3859, 3825, 3819, 3854, 3857
2352, 3857, 3854, 3853, 3859, 3858, 3856, 3855, 3860
2353, 3861, 3862, 3796, 3840, 3863, 3864, 3848, 3847
2354, 3862, 3804, 3758, 3796, 3864, 3805, 3786, 3848
2355, 3797, 3759, 3758, 3796, 3865, 3812, 3804, 3862
2356, 3866, 3867, 3868, 3869, 3870, 3871, 3872, 3873
2357, 3874, 3875, 3876, 3877, 3878, 3879, 3880, 3881
2358, 3882, 3874, 3877, 3883, 3884, 3878, 3881, 3885
2359, 3886, 3887, 3875, 3874, 3888, 3889, 3879, 3878
2360, 3875, 3828, 3829, 3876, 3879, 3830, 3831, 3880
2361, 3887, 3838, 3828, 3875, 3889, 3839, 3830, 3879
2362, 3877, 3876, 3890, 3891, 3881, 3880, 3892, 3893
2363, 3883, 3877, 3891, 3894, 3885, 3881, 3893, 3895
2364, 3894, 3891, 3890, 3896, 3895, 3893, 3892, 3867
2365, 3897, 3898, 3899, 3900, 3901, 3902, 3903, 3904
2366, 3899, 3903, 3902, 3898, 1161, 1209, 1217, 1167
2367, 3898, 3902, 3905, 3906, 1167, 1217, 1713, 1686
2368, 3907, 3908, 3909, 3910, 3911, 3912, 3913, 3914
2369, 3915, 3916, 3917, 3913, 1195, 1201, 1202, 1196
2370, 3918, 3913, 3919, 3903, 1197, 1196, 1208, 1209
2371, 3913, 3917, 3920, 3919, 1196, 1202, 1212, 1208
2372, 3916, 3921, 3922, 3917, 1201, 1205, 1206, 1202
2373, 3923, 3924, 3925, 3926, 3927, 3921, 3928, 3929
2374, 3930, 3931, 3932, 3933, 3934, 3935, 3936, 3937
2375, 3931, 3926, 3938, 3932, 3935, 3929, 3939, 3936
2376, 3926, 3925, 3940, 3938, 3929, 3928, 3941, 3939
2377, 3933, 3932, 3942, 3943, 3937, 3936, 3944, 3917
2378, 3932, 3938, 3945, 3942, 3936, 3939, 3946, 3944
2379, 3938, 3940, 3947, 3945, 3939, 3941, 3922, 3946
2380, 3934, 3935, 3936, 3937, 3916, 3948, 3944, 3917
2381, 3929, 3928, 3941, 3939, 3927, 3921, 3922, 3946
2382, 3935, 3929, 3939, 3936, 3948, 3927, 3946, 3944
2383, 3948, 3927, 3946, 3944, 3916, 3921, 3922, 3917
2384, 3949, 3930, 3933, 3908, 3950, 3934, 3937, 3912
2385, 3950, 3934, 3937, 3912, 3915, 3916, 3917, 3913
2386, 3908, 3933, 3943, 3909, 3912, 3937, 3917, 3913
2387, 3924, 3951, 3952, 3925, 3921, 3953, 3954, 3928
2388, 3925, 3952, 3955, 3940, 3928, 3954, 3956, 3941
2389, 3940, 3955, 3957, 3947, 3941, 3956, 3958, 3922
2390, 3928, 3954, 3956, 3941, 3921, 3953, 3958, 3922
2391, 3952, 3951, 3957, 3955, 3954, 3953, 3958, 3956
2392, 3921, 3953, 3958, 3922, 1205, 1317, 1320, 1206
2393, 3917, 3922, 3959, 3920, 1202, 1206, 1214, 1212
2394, 3922, 3958, 3960, 3959, 1206, 1320, 1329, 1214
2395, 3903, 3919, 3961, 3902, 1209, 1208, 1216, 1217
2396, 3962, 3963, 3964, 3965, 3966, 3967, 3968, 3969
2397, 3963, 3970, 3971, 3964, 3967, 3919, 3972, 3968
2398, 3973, 3965, 3974, 3975, 3904, 3969, 3976, 3901
2399, 3965, 3964, 3977, 3974, 3969, 3968, 3978, 3976
2400, 3964, 3971, 3979, 3977, 3968, 3972, 3980, 3978
2401, 3975, 3974, 3981, 3982, 3901, 3976, 3983, 3902
2402, 3974, 3977, 3984, 3981, 3976, 3978, 3985, 3983
2403, 3977, 3979, 3986, 3984, 3978, 3980, 3961, 3985
2404, 3904, 3969, 3976, 3901, 3903, 3966, 3983, 3902
2405, 3968, 3972, 3980, 3978, 3967, 3919, 3961, 3985
2406, 3969, 3968, 3978, 3976, 3966, 3967, 3985, 3983
2407, 3966, 3967, 3985, 3983, 3903, 3919, 3961, 3902
2408, 3962, 3987, 3910, 3963, 3966, 3988, 3914, 3967
2409, 3966, 3988, 3914, 3967, 3903, 3918, 3913, 3919
2410, 3963, 3910, 3909, 3970, 3967, 3914, 3913, 3919
2411, 3919, 3920, 3989, 3961, 1208, 1212, 1219, 1216
2412, 3902, 3961, 3990, 3905, 1217, 1216, 1714, 1713
2413, 3961, 3989, 3991, 3990, 1216, 1219, 1720, 1714
2414, 3920, 3959, 3992, 3989, 1212, 1214, 1221, 1219
2415, 3993, 3994, 3995, 3996, 3920, 3997, 3998, 3999
2416, 3994, 4000, 4001, 3995, 3997, 4002, 4003, 3998
2417, 4000, 4004, 4005, 4001, 4002, 3959, 4006, 4003
2418, 3996, 3995, 4007, 4008, 3999, 3998, 4009, 4010
2419, 3995, 4001, 4011, 4007, 3998, 4003, 4012, 4009
2420, 4001, 4005, 4013, 4011, 4003, 4006, 4014, 4012
2421, 4008, 4007, 4015, 4016, 4010, 4009, 4017, 3989
2422, 4007, 4011, 4018, 4015, 4009, 4012, 4019, 4017
2423, 4011, 4013, 4020, 4018, 4012, 4014, 3992, 4019
2424, 3999, 3998, 4009, 4010, 3920, 3997, 4017, 3989
2425, 4003, 4006, 4014, 4012, 4002, 3959, 3992, 4019
2426, 3998, 4003, 4012, 4009, 3997, 4002, 4019, 4017
2427, 3997, 4002, 4019, 4017, 3920, 3959, 3992, 3989
2428, 3970, 3993, 3996, 3971, 3919, 3920, 3999, 3972
2429, 3971, 3996, 4008, 3979, 3972, 3999, 4010, 3980
2430, 3972, 3999, 4010, 3980, 3919, 3920, 3989, 3961
2431, 3979, 4008, 4016, 3986, 3980, 4010, 3989, 3961
2432, 3993, 3943, 3942, 3994, 3920, 3917, 3944, 3997
2433, 3994, 3942, 3945, 4000, 3997, 3944, 3946, 4002
2434, 3997, 3944, 3946, 4002, 3920, 3917, 3922, 3959
2435, 4000, 3945, 3947, 4004, 4002, 3946, 3922, 3959
2436, 4004, 4021, 4022, 4005, 3959, 3960, 4023, 4006
2437, 4005, 4022, 4024, 4013, 4006, 4023, 4025, 4014
2438, 4013, 4024, 4026, 4020, 4014, 4025, 4027, 3992
2439, 4006, 4023, 4025, 4014, 3959, 3960, 4027, 3992
2440, 4022, 4021, 4026, 4024, 4023, 3960, 4027, 4025
2441, 3959, 3960, 4027, 3992, 1214, 1329, 1335, 1221
2442, 3989, 3992, 4028, 3991, 1219, 1221, 1724, 1720
2443, 3992, 4027, 4029, 4028, 1221, 1335, 1823, 1724
2444, 2260, 2261, 2262, 2263, 3951, 4030, 4031, 3957
2445, 4032, 4033, 4034, 4035, 4036, 4037, 4038, 4039
2446, 4033, 4040, 4041, 4034, 4037, 2263, 4042, 4038
2447, 4035, 4034, 4043, 4044, 4039, 4038, 4045, 4046
2448, 4034, 4041, 4047, 4043, 4038, 4042, 4048, 4045
2449, 4044, 4043, 3940, 3925, 4046, 4045, 3955, 3952
2450, 4043, 4047, 3947, 3940, 4045, 4048, 3957, 3955
2451, 4038, 4042, 4048, 4045, 4037, 2263, 3957, 3955
2452, 4039, 4038, 4045, 4046, 4036, 4037, 3955, 3952
2453, 4036, 4037, 3955, 3952, 2260, 2263, 3957, 3951
2454, 4032, 2251, 2250, 4033, 4036, 2253, 2252, 4037
2455, 4036, 2253, 2252, 4037, 2260, 2234, 2237, 2263
2456, 4033, 2250, 2254, 4040, 4037, 2252, 2237, 2263
2457, 2261, 2264, 2265, 2262, 4030, 4049, 4050, 4031
2458, 2263, 2262, 2266, 2267, 3957, 4031, 4051, 4021
2459, 2262, 2265, 2268, 2266, 4031, 4050, 4052, 4051
2460, 3951, 4030, 4031, 3957, 3953, 4053, 4054, 3958
2461, 4030, 4049, 4050, 4031, 4053, 4055, 4056, 4054
2462, 3957, 4031, 4051, 4021, 3958, 4054, 4057, 3960
2463, 4031, 4050, 4052, 4051, 4054, 4056, 4058, 4057
2464, 2264, 1243, 1244, 2265, 4049, 1246, 1245, 4050
2465, 2265, 1244, 1250, 2268, 4050, 1245, 1251, 4052
2466, 4049, 1246, 1245, 4050, 4055, 1258, 1257, 4056
2467, 4050, 1245, 1251, 4052, 4056, 1257, 1261, 4058
2468, 2267, 2266, 2297, 2298, 4021, 4051, 4059, 4026
2469, 4060, 4061, 4062, 4063, 2267, 4064, 4065, 4066
2470, 4061, 4067, 4068, 4062, 4064, 4069, 4070, 4065
2471, 4067, 4071, 4072, 4068, 4069, 2298, 4073, 4070
2472, 4063, 4062, 4074, 4075, 4066, 4065, 4076, 4077
2473, 4062, 4068, 4078, 4074, 4065, 4070, 4079, 4076
2474, 4068, 4072, 4080, 4078, 4070, 4073, 4081, 4079
2475, 4075, 4074, 4005, 4004, 4077, 4076, 4022, 4021
2476, 4074, 4078, 4013, 4005, 4076, 4079, 4024, 4022
2477, 4078, 4080, 4020, 4013, 4079, 4081, 4026, 4024
2478, 4066, 4065, 4076, 4077, 2267, 4064, 4022, 4021
2479, 4070, 4073, 4081, 4079, 4069, 2298, 4026, 4024
2480, 4065, 4070, 4079, 4076, 4064, 4069, 4024, 4022
2481, 4064, 4069, 4024, 4022, 2267, 2298, 4026, 4021
2482, 4040, 4060, 4063, 4041, 2263, 2267, 4066, 4042
2483, 4041, 4063, 4075, 4047, 4042, 4066, 4077, 4048
2484, 4042, 4066, 4077, 4048, 2263, 2267, 4021, 3957
2485, 4047, 4075, 4004, 3947, 4048, 4077, 4021, 3957
2486, 4060, 2288, 2287, 4061, 2267, 2258, 2289, 4064
2487, 4061, 2287, 2290, 4067, 4064, 2289, 2291, 4069
2488, 4064, 2289, 2291, 4069, 2267, 2258, 2270, 2298
2489, 4067, 2290, 2292, 4071, 4069, 2291, 2270, 2298
2490, 2266, 2268, 2299, 2297, 4051, 4052, 4082, 4059
2491, 2298, 2297, 2300, 2301, 4026, 4059, 4083, 4084
2492, 2297, 2299, 2302, 2300, 4059, 4082, 4085, 4083
2493, 4021, 4051, 4059, 4026, 3960, 4057, 4086, 4027
2494, 4051, 4052, 4082, 4059, 4057, 4058, 4087, 4086
2495, 4026, 4059, 4083, 4084, 4027, 4086, 4088, 4029
2496, 4059, 4082, 4085, 4083, 4086, 4087, 4089, 4088
2497, 2268, 1250, 1254, 2299, 4052, 1251, 1255, 4082
2498, 2299, 1254, 1761, 2302, 4082, 1255, 1764, 4085
2499, 4052, 1251, 1255, 4082, 4058, 1261, 1263, 4087
2500, 4082, 1255, 1764, 4085, 4087, 1263, 1776, 4089
2501, 3953, 4053, 4054, 3958, 1317, 1318, 1319, 1320
2502, 4053, 4055, 4056, 4054, 1318, 1324, 1325, 1319
2503, 3958, 4054, 4057, 3960, 1320, 1319, 1328, 1329
2504, 4054, 4056, 4058, 4057, 1319, 1325, 1332, 1328
2505, 4055, 1258, 1257, 4056, 1324, 1266, 1265, 1325
2506, 4056, 1257, 1261, 4058, 1325, 1265, 1268, 1332
2507, 3960, 4057, 4086, 4027, 1329, 1328, 1334, 1335
2508, 4057, 4058, 4087, 4086, 1328, 1332, 1337, 1334
2509, 4027, 4086, 4088, 4029, 1335, 1334, 1824, 1823
2510, 4086, 4087, 4089, 4088, 1334, 1337, 1830, 1824
2511, 4058, 1261, 1263, 4087, 1332, 1268, 1270, 1337
2512, 4087, 1263, 1776, 4089, 1337, 1270, 1784, 1830
2513, 1285, 2363, 2364, 1289, 1282, 4090, 4091, 1288
2514, 2363, 2365, 2366, 2364, 4090, 4092, 4093, 4091
2515, 1282, 4090, 4091, 1288, 1296, 4094, 4095, 1295
2516, 4090, 4092, 4093, 4091, 4094, 4096, 4097, 4095
2517, 2365, 2371, 2372, 2366, 4092, 4098, 4099, 4093
2518, 2371, 2373, 2374, 2372, 4098, 4100, 4101, 4099
2519, 4092, 4098, 4099, 4093, 4096, 4102, 4103, 4097
2520, 4098, 4100, 4101, 4099, 4102, 4104, 4105, 4103
2521, 1289, 2364, 2379, 1292, 1288, 4091, 4106, 1291
2522, 2364, 2366, 2380, 2379, 4091, 4093, 4107, 4106
2523, 1292, 2379, 2381, 1800, 1291, 4106, 4108, 1799
2524, 2379, 2380, 2382, 2381, 4106, 4107, 4109, 4108
2525, 1288, 4091, 4106, 1291, 1295, 4095, 4110, 1298
2526, 4091, 4093, 4107, 4106, 4095, 4097, 4111, 4110
2527, 1291, 4106, 4108, 1799, 1298, 4110, 4112, 1812
2528, 4106, 4107, 4109, 4108, 4110, 4111, 4113, 4112
2529, 2366, 2372, 2387, 2380, 4093, 4099, 4114, 4107
2530, 2372, 2374, 2388, 2387, 4099, 4101, 4115, 4114
2531, 2380, 2387, 2389, 2382, 4107, 4114, 4116, 4109
2532, 2387, 2388, 2390, 2389, 4114, 4115, 4117, 4116
2533, 4093, 4099, 4114, 4107, 4097, 4103, 4118, 4111
2534, 4099, 4101, 4115, 4114, 4103, 4105, 4119, 4118
2535, 4107, 4114, 4116, 4109, 4111, 4118, 4120, 4113
2536, 4114, 4115, 4117, 4116, 4118, 4119, 4121, 4120
2537, 1296, 4094, 4095, 1295, 1302, 4122, 4123, 1301
2538, 1295, 4095, 4110, 1298, 1301, 4123, 4124, 1303
2539, 4095, 4097, 4111, 4110, 4123, 4125, 4126, 4124
2540, 1298, 4110, 4112, 1812, 1303, 4124, 4127, 1817
2541, 4110, 4111, 4113, 4112, 4124, 4126, 4128, 4127
2542, 1301, 4123, 4124, 1303, 1361, 4129, 4130, 1362
2543, 1303, 4124, 4127, 1817, 1362, 4130, 4131, 1857
2544, 4124, 4126, 4128, 4127, 4130, 4132, 4133, 4131
2545, 4097, 4103, 4118, 4111, 4125, 4134, 4135, 4126
2546, 4103, 4105, 4119, 4118, 4134, 4136, 4137, 4135
2547, 4111, 4118, 4120, 4113, 4126, 4135, 4138, 4128
2548, 4118, 4119, 4121, 4120, 4135, 4137, 4139, 4138
2549, 4126, 4135, 4138, 4128, 4132, 4140, 4141, 4133
2550, 2373, 2432, 2433, 2374, 4100, 4142, 4143, 4101
2551, 2432, 2434, 2435, 2433, 4142, 4144, 4145, 4143
2552, 4100, 4142, 4143, 4101, 4104, 4146, 4147, 4105
2553, 2434, 2442, 2443, 2435, 4144, 4148, 4149, 4145
2554, 2442, 2444, 2445, 2443, 4148, 4150, 4151, 4149
2555, 2374, 2433, 2450, 2388, 4101, 4143, 4152, 4115
2556, 2433, 2435, 2451, 2450, 4143, 4145, 4153, 4152
2557, 2388, 2450, 2452, 2390, 4115, 4152, 4154, 4117
2558, 2450, 2451, 2453, 2452, 4152, 4153, 4155, 4154
2559, 4101, 4143, 4152, 4115, 4105, 4147, 4156, 4119
2560, 4143, 4145, 4153, 4152, 4147, 4157, 4158, 4156
2561, 4115, 4152, 4154, 4117, 4119, 4156, 4159, 4121
2562, 4152, 4153, 4155, 4154, 4156, 4158, 4160, 4159
2563, 2435, 2443, 2458, 2451, 4145, 4149, 4161, 4153
2564, 2443, 2445, 2459, 2458, 4149, 4151, 4162, 4161
2565, 2451, 2458, 2460, 2453, 4153, 4161, 4163, 4155
2566, 2458, 2459, 2461, 2460, 4161, 4162, 4164, 4163
2567, 4145, 4149, 4161, 4153, 4157, 4165, 4166, 4158
2568, 4149, 4151, 4162, 4161, 4165, 4167, 4168, 4166
2569, 4153, 4161, 4163, 4155, 4158, 4166, 4169, 4160
2570, 4161, 4162, 4164, 4163, 4166, 4168, 4170, 4169
2571, 4105, 4147, 4156, 4119, 4136, 4171, 4172, 4137
2572, 4147, 4157, 4158, 4156, 4171, 4173, 4174, 4172
2573, 4119, 4156, 4159, 4121, 4137, 4172, 4175, 4139
2574, 4156, 4158, 4160, 4159, 4172, 4174, 4176, 4175
2575, 4158, 4166, 4169, 4160, 4174, 4177, 4178, 4176
2576, 4166, 4168, 4170, 4169, 4177, 4179, 4180, 4178
2577, 1362, 4130, 4131, 1857, 1359, 4181, 4182, 1856
2578, 2444, 2500, 2501, 2445, 4150, 4183, 4184, 4151
2579, 2500, 2502, 2503, 2501, 4183, 4185, 4186, 4184
2580, 2502, 2510, 2511, 2503, 4185, 4187, 4188, 4186
2581, 2510, 2512, 2513, 2511, 4187, 4189, 4190, 4188
2582, 2445, 2501, 2518, 2459, 4151, 4184, 4191, 4162
2583, 2501, 2503, 2519, 2518, 4184, 4186, 4192, 4191
2584, 2459, 2518, 2520, 2461, 4162, 4191, 4193, 4164
2585, 2518, 2519, 2521, 2520, 4191, 4192, 4194, 4193
2586, 4151, 4184, 4191, 4162, 4167, 4195, 4196, 4168
2587, 4184, 4186, 4192, 4191, 4195, 4197, 4198, 4196
2588, 4162, 4191, 4193, 4164, 4168, 4196, 4199, 4170
2589, 4191, 4192, 4194, 4193, 4196, 4198, 4200, 4199
2590, 2503, 2511, 2526, 2519, 4186, 4188, 4201, 4192
2591, 2511, 2513, 2527, 2526, 4188, 4190, 4202, 4201
2592, 2519, 2526, 2528, 2521, 4192, 4201, 4203, 4194
2593, 2526, 2527, 2529, 2528, 4201, 4202, 4204, 4203
2594, 4186, 4188, 4201, 4192, 4197, 4205, 4206, 4198
2595, 4188, 4190, 4202, 4201, 4205, 4207, 4208, 4206
2596, 4192, 4201, 4203, 4194, 4198, 4206, 4209, 4200
2597, 4201, 4202, 4204, 4203, 4206, 4208, 4210, 4209
2598, 4168, 4196, 4199, 4170, 4179, 4211, 4212, 4180
2599, 4196, 4198, 4200, 4199, 4211, 4213, 4214, 4212
2600, 4198, 4206, 4209, 4200, 4213, 4215, 4216, 4214
2601, 4206, 4208, 4210, 4209, 4215, 4217, 4218, 4216
2602, 2512, 2566, 2567, 2513, 4189, 4219, 4220, 4190
2603, 2566, 2568, 2569, 2567, 4219, 4221, 4222, 4220
2604, 2568, 2576, 2577, 2569, 4221, 4223, 4224, 4222
2605, 2576, 2578, 2579, 2577, 4223, 4225, 4226, 4224
2606, 2513, 2567, 2584, 2527, 4190, 4220, 4227, 4202
2607, 2567, 2569, 2585, 2584, 4220, 4222, 4228, 4227
2608, 2527, 2584, 2586, 2529, 4202, 4227, 4229, 4204
2609, 2584, 2585, 2587, 2586, 4227, 4228, 4230, 4229
2610, 4190, 4220, 4227, 4202, 4207, 4231, 4232, 4208
2611, 4220, 4222, 4228, 4227, 4231, 4233, 4234, 4232
2612, 4202, 4227, 4229, 4204, 4208, 4232, 4235, 4210
2613, 4227, 4228, 4230, 4229, 4232, 4234, 4236, 4235
2614, 2569, 2577, 2592, 2585, 4222, 4224, 4237, 4228
2615, 2577, 2579, 2593, 2592, 4224, 4226, 4238, 4237
2616, 2585, 2592, 2594, 2587, 4228, 4237, 4239, 4230
2617, 2592, 2593, 2595, 2594, 4237, 4238, 4240, 4239
2618, 4222, 4224, 4237, 4228, 4233, 4241, 4242, 4234
2619, 4224, 4226, 4238, 4237, 4241, 4243, 4244, 4242
2620, 4228, 4237, 4239, 4230, 4234, 4242, 4245, 4236
2621, 4237, 4238, 4240, 4239, 4242, 4244, 4246, 4245
2622, 4208, 4232, 4235, 4210, 4217, 4247, 4248, 4218
2623, 4232, 4234, 4236, 4235, 4247, 4249, 4250, 4248
2624, 2578, 2634, 2635, 2579, 4225, 4251, 4252, 4226
2625, 2634, 2636, 2637, 2635, 4251, 4253, 4254, 4252
2626, 2636, 2644, 2645, 2637, 4253, 4255, 4256, 4254
2627, 2644, 2646, 2647, 2645, 4255, 4257, 4258, 4256
2628, 2579, 2635, 2652, 2593, 4226, 4252, 4259, 4238
2629, 2635, 2637, 2653, 2652, 4252, 4254, 4260, 4259
2630, 2593, 2652, 2654, 2595, 4238, 4259, 4261, 4240
2631, 2652, 2653, 2655, 2654, 4259, 4260, 4262, 4261
2632, 4226, 4252, 4259, 4238, 4243, 4263, 4264, 4244
2633, 4252, 4254, 4260, 4259, 4263, 4265, 4266, 4264
2634, 4238, 4259, 4261, 4240, 4244, 4264, 4267, 4246
2635, 4259, 4260, 4262, 4261, 4264, 4266, 4268, 4267
2636, 2637, 2645, 2660, 2653, 4254, 4256, 4269, 4260
2637, 2645, 2647, 2661, 2660, 4256, 4258, 4270, 4269
2638, 2653, 2660, 2662, 2655, 4260, 4269, 4271, 4262
2639, 2660, 2661, 2663, 2662, 4269, 4270, 4272, 4271
2640, 4254, 4256, 4269, 4260, 4265, 4273, 4274, 4266
2641, 4256, 4258, 4270, 4269, 4273, 4275, 4276, 4274
2642, 4260, 4269, 4271, 4262, 4266, 4274, 4277, 4268
2643, 4269, 4270, 4272, 4271, 4274, 4276, 4278, 4277
2644, 4274, 4276, 4278, 4277, 4279, 4280, 4281, 4282
2645, 2646, 2702, 2703, 2647, 4257, 4283, 4284, 4258
2646, 2702, 2704, 2705, 2703, 4283, 4285, 4286, 4284
2647, 2704, 2712, 2713, 2705, 4285, 4287, 4288, 4286
2648, 2712, 2714, 2715, 2713, 4287, 4289, 4290, 4288
2649, 2647, 2703, 2720, 2661, 4258, 4284, 4291, 4270
2650, 2703, 2705, 2721, 2720, 4284, 4286, 4292, 4291
2651, 2661, 2720, 2722, 2663, 4270, 4291, 4293, 4272
2652, 2720, 2721, 2723, 2722, 4291, 4292, 4294, 4293
2653, 4258, 4284, 4291, 4270, 4275, 4295, 4296, 4276
2654, 4284, 4286, 4292, 4291, 4295, 4297, 4298, 4296
2655, 4270, 4291, 4293, 4272, 4276, 4296, 4299, 4278
2656, 4291, 4292, 4294, 4293, 4296, 4298, 4300, 4299
2657, 2705, 2713, 2728, 2721, 4286, 4288, 4301, 4292
2658, 2713, 2715, 2729, 2728, 4288, 4290, 4302, 4301
2659, 2721, 2728, 2730, 2723, 4292, 4301, 4303, 4294
2660, 2728, 2729, 2731, 2730, 4301, 4302, 4304, 4303
2661, 4286, 4288, 4301, 4292, 4297, 4305, 4306, 4298
2662, 4288, 4290, 4302, 4301, 4305, 4307, 4308, 4306
2663, 4292, 4301, 4303, 4294, 4298, 4306, 4309, 4300
2664, 4301, 4302, 4304, 4303, 4306, 4308, 4310, 4309
2665, 4276, 4296, 4299, 4278, 4280, 4311, 4312, 4281
2666, 4296, 4298, 4300, 4299, 4311, 4313, 4314, 4312
2667, 4298, 4306, 4309, 4300, 4313, 4315, 4316, 4314
2668, 4306, 4308, 4310, 4309, 4315, 4317, 4318, 4316
2669, 2714, 2795, 2796, 2715, 4289, 4319, 4320, 4290
2670, 2795, 2797, 2798, 2796, 4319, 4321, 4322, 4320
2671, 2797, 2803, 2804, 2798, 4321, 4323, 4324, 4322
2672, 2803, 2805, 2806, 2804, 4323, 4325, 4326, 4324
2673, 4321, 4323, 4324, 4322, 4327, 4328, 4329, 4330
2674, 4323, 4325, 4326, 4324, 4328, 4331, 4332, 4329
2675, 2715, 2796, 2811, 2729, 4290, 4320, 4333, 4302
2676, 2796, 2798, 2812, 2811, 4320, 4322, 4334, 4333
2677, 2729, 2811, 2813, 2731, 4302, 4333, 4335, 4304
2678, 2811, 2812, 2814, 2813, 4333, 4334, 4336, 4335
2679, 4290, 4320, 4333, 4302, 4307, 4337, 4338, 4308
2680, 4320, 4322, 4334, 4333, 4337, 4330, 4339, 4338
2681, 4302, 4333, 4335, 4304, 4308, 4338, 4340, 4310
2682, 4333, 4334, 4336, 4335, 4338, 4339, 4341, 4340
2683, 2798, 2804, 2819, 2812, 4322, 4324, 4342, 4334
2684, 2804, 2806, 2820, 2819, 4324, 4326, 4343, 4342
2685, 2812, 2819, 2821, 2814, 4334, 4342, 4344, 4336
2686, 2819, 2820, 2822, 2821, 4342, 4343, 4345, 4344
2687, 4322, 4324, 4342, 4334, 4330, 4329, 4346, 4339
2688, 4324, 4326, 4343, 4342, 4329, 4332, 4347, 4346
2689, 4334, 4342, 4344, 4336, 4339, 4346, 4348, 4341
2690, 4342, 4343, 4345, 4344, 4346, 4347, 4349, 4348
2691, 4337, 4330, 4339, 4338, 4350, 4351, 4352, 4353
2692, 4308, 4338, 4340, 4310, 4317, 4353, 4354, 4318
2693, 4338, 4339, 4341, 4340, 4353, 4352, 4355, 4354
2694, 4330, 4329, 4346, 4339, 4351, 4356, 4357, 4352
2695, 4329, 4332, 4347, 4346, 4356, 4358, 4359, 4357
2696, 4339, 4346, 4348, 4341, 4352, 4357, 4360, 4355
2697, 4346, 4347, 4349, 4348, 4357, 4359, 4361, 4360
2698, 2805, 2844, 2845, 2806, 4325, 4362, 4363, 4326
2699, 2844, 2846, 2847, 2845, 4362, 4364, 4365, 4363
2700, 4325, 4362, 4363, 4326, 4331, 4366, 4367, 4332
2701, 4362, 4364, 4365, 4363, 4366, 4368, 4369, 4367
2702, 2846, 1416, 1422, 2847, 4364, 1417, 1423, 4365
2703, 4364, 1417, 1423, 4365, 4368, 1430, 1429, 4369
2704, 2806, 2845, 2852, 2820, 4326, 4363, 4370, 4343
2705, 2845, 2847, 2853, 2852, 4363, 4365, 4371, 4370
2706, 2820, 2852, 2854, 2822, 4343, 4370, 4372, 4345
2707, 2852, 2853, 2855, 2854, 4370, 4371, 4373, 4372
2708, 4326, 4363, 4370, 4343, 4332, 4367, 4374, 4347
2709, 4363, 4365, 4371, 4370, 4367, 4369, 4375, 4374
2710, 4343, 4370, 4372, 4345, 4347, 4374, 4376, 4349
2711, 4370, 4371, 4373, 4372, 4374, 4375, 4377, 4376
2712, 2847, 1422, 1426, 2853, 4365, 1423, 1427, 4371
2713, 2853, 1426, 1885, 2855, 4371, 1427, 1888, 4373
2714, 4365, 1423, 1427, 4371, 4369, 1429, 1433, 4375
2715, 4371, 1427, 1888, 4373, 4375, 1433, 1900, 4377
2716, 4368, 1430, 1429, 4369, 4378, 1436, 1435, 4379
2717, 4332, 4367, 4374, 4347, 4358, 4380, 4381, 4359
2718, 4367, 4369, 4375, 4374, 4380, 4379, 4382, 4381
2719, 4347, 4374, 4376, 4349, 4359, 4381, 4383, 4361
2720, 4374, 4375, 4377, 4376, 4381, 4382, 4384, 4383
2721, 4380, 4379, 4382, 4381, 4385, 4386, 4387, 4388
2722, 4359, 4381, 4383, 4361, 4389, 4388, 4390, 4391
2723, 4381, 4382, 4384, 4383, 4388, 4387, 4392, 4390
2724, 4369, 1429, 1433, 4375, 4379, 1435, 1439, 4382
2725, 4375, 1433, 1900, 4377, 4382, 1439, 1906, 4384
2726, 4379, 1435, 1439, 4382, 4386, 1504, 1505, 4387
2727, 4382, 1439, 1906, 4384, 4387, 1505, 1948, 4392
2728, 4387, 1505, 1948, 4392, 4393, 1506, 1951, 4394
2729, 1446, 2947, 2948, 1447, 1445, 4395, 4396, 1444
2730, 2947, 2949, 2950, 2948, 4395, 4397, 4398, 4396
2731, 1447, 2948, 2951, 1451, 1444, 4396, 4399, 1450
2732, 2948, 2950, 2952, 2951, 4396, 4398, 4400, 4399
2733, 1445, 4395, 4396, 1444, 1458, 4401, 4402, 1457
2734, 4395, 4397, 4398, 4396, 4401, 4403, 4404, 4402
2735, 1444, 4396, 4399, 1450, 1457, 4402, 4405, 1460
2736, 4396, 4398, 4400, 4399, 4402, 4404, 4406, 4405
2737, 4407, 4408, 4409, 2978, 4410, 4411, 4412, 4413
2738, 4414, 4415, 4416, 4408, 4417, 4418, 4419, 4411
2739, 4420, 4414, 4408, 4407, 4421, 4417, 4411, 4410
2740, 4422, 4423, 4415, 4414, 4424, 4425, 4418, 4417
2741, 4426, 4422, 4414, 4420, 4427, 4424, 4417, 4421
2742, 4426, 4422, 4409, 2978, 4420, 4414, 4408, 4407
2743, 4422, 4423, 4428, 4409, 4414, 4415, 4416, 4408
2744, 2968, 2978, 4409, 2969, 2970, 4413, 4412, 2971
2745, 4423, 4429, 4430, 4431, 4425, 4432, 4433, 4434
2746, 4422, 4435, 4429, 4423, 4424, 4436, 4432, 4425
2747, 4426, 4437, 4435, 4422, 4427, 4438, 4436, 4424
2748, 4426, 4437, 4430, 4431, 4422, 4435, 4429, 4423
2749, 4435, 4437, 4430, 4429, 4436, 4438, 4433, 4432
2750, 2950, 2978, 2979, 2952, 4398, 4426, 4439, 4400
2751, 4397, 4431, 4426, 4398, 4403, 4430, 4437, 4404
2752, 4398, 4426, 4439, 4400, 4404, 4437, 4440, 4406
2753, 1451, 2951, 2984, 1454, 1450, 4399, 4441, 1453
2754, 2951, 2952, 2985, 2984, 4399, 4400, 4442, 4441
2755, 1454, 2984, 2986, 1916, 1453, 4441, 4443, 1915
2756, 2984, 2985, 2987, 2986, 4441, 4442, 4444, 4443
2757, 1450, 4399, 4441, 1453, 1460, 4405, 4445, 1462
2758, 4399, 4400, 4442, 4441, 4405, 4406, 4446, 4445
2759, 1453, 4441, 4443, 1915, 1462, 4445, 4447, 1928
2760, 4441, 4442, 4444, 4443, 4445, 4446, 4448, 4447
2761, 2952, 2979, 3018, 2985, 4400, 4439, 4449, 4442
2762, 4450, 4451, 2979, 4452, 4453, 4454, 4455, 4456
2763, 4457, 4450, 4452, 4458, 4459, 4453, 4456, 4460
2764, 4461, 4457, 4458, 3018, 4462, 4459, 4460, 4463
2765, 4464, 4465, 4451, 4450, 4466, 4467, 4454, 4453
2766, 4468, 4464, 4450, 4457, 4469, 4466, 4453, 4459
2767, 4470, 4468, 4457, 4461, 4471, 4469, 4459, 4462
2768, 4472, 4439, 4465, 4464, 4473, 4474, 4467, 4466
2769, 4475, 4472, 4464, 4468, 4476, 4473, 4466, 4469
2770, 4449, 4475, 4468, 4470, 4477, 4476, 4469, 4471
2771, 4472, 4439, 2979, 4452, 4464, 4465, 4451, 4450
2772, 4449, 4475, 4458, 3018, 4470, 4468, 4457, 4461
2773, 4475, 4472, 4452, 4458, 4468, 4464, 4450, 4457
2774, 4449, 4439, 2979, 3018, 4475, 4472, 4452, 4458
2775, 4451, 4407, 2978, 2979, 4454, 4410, 4413, 4455
2776, 4465, 4420, 4407, 4451, 4467, 4421, 4410, 4454
2777, 4439, 4426, 2978, 2979, 4465, 4420, 4407, 4451
2778, 4439, 4426, 4420, 4465, 4474, 4427, 4421, 4467
2779, 3011, 4452, 2979, 2977, 3012, 4456, 4455, 3013
2780, 3014, 4458, 4452, 3011, 3015, 4460, 4456, 3012
2781, 2988, 3018, 2979, 2977, 3014, 4458, 4452, 3011
2782, 2988, 3018, 4458, 3014, 3016, 4463, 4460, 3015
2783, 4472, 4478, 4440, 4439, 4473, 4479, 4480, 4474
2784, 4475, 4481, 4478, 4472, 4476, 4482, 4479, 4473
2785, 4449, 4483, 4481, 4475, 4477, 4484, 4482, 4476
2786, 4449, 4483, 4440, 4439, 4475, 4481, 4478, 4472
2787, 4481, 4483, 4440, 4478, 4482, 4484, 4480, 4479
2788, 2985, 3018, 3019, 2987, 4442, 4449, 4485, 4444
2789, 4400, 4439, 4449, 4442, 4406, 4440, 4483, 4446
2790, 4442, 4449, 4485, 4444, 4446, 4483, 4486, 4448
2791, 1458, 4401, 4402, 1457, 1465, 1530, 1531, 1464
2792, 4401, 4403, 4404, 4402, 1530, 1534, 1535, 1531
2793, 1457, 4402, 4405, 1460, 1464, 1531, 1541, 1467
2794, 4402, 4404, 4406, 4405, 1531, 1535, 1543, 1541
2795, 4403, 4430, 4437, 4404, 1534, 1538, 1539, 1535
2796, 4430, 4433, 4438, 4437, 1538, 1579, 1582, 1539
2797, 4404, 4437, 4440, 4406, 1535, 1539, 1545, 1543
2798, 4437, 4438, 4480, 4440, 1539, 1582, 1594, 1545
2799, 1460, 4405, 4445, 1462, 1467, 1541, 1547, 1468
2800, 4405, 4406, 4446, 4445, 1541, 1543, 1549, 1547
2801, 1462, 4445, 4447, 1928, 1468, 1547, 1965, 1935
2802, 4445, 4446, 4448, 4447, 1547, 1549, 1969, 1965
2803, 4406, 4440, 4483, 4446, 1543, 1545, 1551, 1549
2804, 4440, 4480, 4484, 4483, 1545, 1594, 1602, 1551
2805, 4446, 4483, 4486, 4448, 1549, 1551, 1973, 1969
2806, 4483, 4484, 4487, 4486, 1551, 1602, 2007, 1973
2807, 4433, 4488, 4489, 4438, 1579, 1580, 1581, 1582
2808, 4425, 4490, 4491, 4424, 4432, 4492, 4493, 4436
2809, 4490, 4494, 4495, 4491, 4492, 4496, 4497, 4493
2810, 4494, 4498, 4499, 4495, 4496, 4500, 4501, 4497
2811, 4424, 4491, 4502, 4427, 4436, 4493, 4503, 4438
2812, 4491, 4495, 4504, 4502, 4493, 4497, 4505, 4503
2813, 4495, 4499, 4506, 4504, 4497, 4501, 4489, 4505
2814, 4432, 4492, 4493, 4436, 4433, 4507, 4503, 4438
2815, 4496, 4500, 4501, 4497, 4508, 4488, 4489, 4505
2816, 4492, 4496, 4497, 4493, 4507, 4508, 4505, 4503
2817, 4507, 4508, 4505, 4503, 4433, 4488, 4489, 4438
2818, 4488, 4509, 4510, 4489, 1580, 1586, 1587, 1581
2819, 4438, 4489, 4511, 4480, 1582, 1581, 1593, 1594
2820, 4489, 4510, 4512, 4511, 1581, 1587, 1597, 1593
2821, 4509, 4513, 4514, 4510, 1586, 1590, 1591, 1587
2822, 4515, 4516, 4517, 4518, 4519, 4520, 4521, 4510
2823, 4500, 4522, 4519, 4501, 4488, 4509, 4510, 4489
2824, 4499, 4515, 4518, 4506, 4501, 4519, 4510, 4489
2825, 4510, 4514, 4523, 4512, 1587, 1591, 1599, 1597
2826, 4480, 4511, 4524, 4484, 1594, 1593, 1601, 1602
2827, 4474, 4525, 4526, 4473, 4480, 4527, 4528, 4479
2828, 4525, 4529, 4530, 4526, 4527, 4531, 4532, 4528
2829, 4529, 4533, 4534, 4530, 4531, 4511, 4535, 4532
2830, 4473, 4526, 4536, 4476, 4479, 4528, 4537, 4482
2831, 4526, 4530, 4538, 4536, 4528, 4532, 4539, 4537
2832, 4530, 4534, 4540, 4538, 4532, 4535, 4541, 4539
2833, 4476, 4536, 4542, 4477, 4482, 4537, 4543, 4484
2834, 4536, 4538, 4544, 4542, 4537, 4539, 4545, 4543
2835, 4538, 4540, 4546, 4544, 4539, 4541, 4524, 4545
2836, 4479, 4528, 4537, 4482, 4480, 4527, 4543, 4484
2837, 4532, 4535, 4541, 4539, 4531, 4511, 4524, 4545
2838, 4528, 4532, 4539, 4537, 4527, 4531, 4545, 4543
2839, 4527, 4531, 4545, 4543, 4480, 4511, 4524, 4484
2840, 4474, 4427, 4502, 4525, 4480, 4438, 4503, 4527
2841, 4525, 4502, 4504, 4529, 4527, 4503, 4505, 4531
2842, 4527, 4503, 4505, 4531, 4480, 4438, 4489, 4511
2843, 4529, 4504, 4506, 4533, 4531, 4505, 4489, 4511
2844, 4511, 4512, 4547, 4524, 1593, 1597, 1604, 1601
2845, 4484, 4524, 4548, 4487, 1602, 1601, 2008, 2007
2846, 4524, 4547, 4549, 4548, 1601, 1604, 2014, 2008
2847, 4512, 4523, 4550, 4547, 1597, 1599, 1606, 1604
2848, 4551, 4552, 4553, 4554, 4512, 4555, 4556, 4557
2849, 4552, 4558, 4559, 4553, 4555, 4560, 4561, 4556
2850, 4554, 4553, 4562, 4563, 4557, 4556, 4564, 4565
2851, 4553, 4559, 4566, 4562, 4556, 4561, 4567, 4564
2852, 4559, 4568, 4569, 4566, 4561, 4570, 4571, 4567
2853, 4563, 4562, 4572, 4573, 4565, 4564, 4574, 4547
2854, 4562, 4566, 4575, 4572, 4564, 4567, 4576, 4574
2855, 4566, 4569, 4577, 4575, 4567, 4571, 4550, 4576
2856, 4557, 4556, 4564, 4565, 4512, 4555, 4574, 4547
2857, 4561, 4570, 4571, 4567, 4560, 4523, 4550, 4576
2858, 4556, 4561, 4567, 4564, 4555, 4560, 4576, 4574
2859, 4555, 4560, 4576, 4574, 4512, 4523, 4550, 4547
2860, 4533, 4551, 4554, 4534, 4511, 4512, 4557, 4535
2861, 4534, 4554, 4563, 4540, 4535, 4557, 4565, 4541
2862, 4535, 4557, 4565, 4541, 4511, 4512, 4547, 4524
2863, 4540, 4563, 4573, 4546, 4541, 4565, 4547, 4524
2864, 4551, 4518, 4517, 4552, 4512, 4510, 4521, 4555
2865, 4552, 4517, 4578, 4558, 4555, 4521, 4579, 4560
2866, 4555, 4521, 4579, 4560, 4512, 4510, 4514, 4523
2867, 4523, 4580, 4581, 4550, 1599, 1627, 1633, 1606
2868, 4547, 4550, 4582, 4549, 1604, 1606, 2018, 2014
2869, 4550, 4581, 4583, 4582, 1606, 1633, 2044, 2018
2870, 4584, 4585, 3906, 4586, 4587, 4588, 3905, 4589
2871, 3906, 3905, 4588, 4585, 1686, 1713, 1716, 1687
2872, 3905, 3990, 4590, 4588, 1713, 1714, 1715, 1716
2873, 4591, 4592, 4593, 4594, 3905, 4595, 4596, 4589
2874, 4592, 4597, 4598, 4593, 4595, 4599, 4600, 4596
2875, 4597, 4601, 4602, 4598, 4599, 3990, 4603, 4600
2876, 4594, 4593, 4604, 4605, 4589, 4596, 4606, 4587
2877, 4593, 4598, 4607, 4604, 4596, 4600, 4608, 4606
2878, 4598, 4602, 4609, 4607, 4600, 4603, 4610, 4608
2879, 4604, 4607, 4611, 4612, 4606, 4608, 4613, 4614
2880, 4607, 4609, 4615, 4611, 4608, 4610, 4590, 4613
2881, 4589, 4596, 4606, 4587, 3905, 4595, 4614, 4588
2882, 4600, 4603, 4610, 4608, 4599, 3990, 4590, 4613
2883, 4596, 4600, 4608, 4606, 4595, 4599, 4613, 4614
2884, 4595, 4599, 4613, 4614, 3905, 3990, 4590, 4588
2885, 4591, 3982, 3981, 4592, 3905, 3902, 3983, 4595
2886, 4592, 3981, 3984, 4597, 4595, 3983, 3985, 4599
2887, 4595, 3983, 3985, 4599, 3905, 3902, 3961, 3990
2888, 4597, 3984, 3986, 4601, 4599, 3985, 3961, 3990
2889, 3990, 3991, 4616, 4590, 1714, 1720, 1721, 1715
2890, 4588, 4590, 4617, 4618, 1716, 1715, 1727, 1728
2891, 4590, 4616, 4619, 4617, 1715, 1721, 1731, 1727
2892, 3991, 4028, 4620, 4616, 1720, 1724, 1725, 1721
2893, 4621, 4622, 4623, 4624, 3991, 4625, 4626, 4627
2894, 4622, 4628, 4629, 4623, 4625, 4630, 4631, 4626
2895, 4628, 4632, 4633, 4629, 4630, 4028, 4634, 4631
2896, 4624, 4623, 4635, 4636, 4627, 4626, 4637, 4638
2897, 4623, 4629, 4639, 4635, 4626, 4631, 4640, 4637
2898, 4629, 4633, 4641, 4639, 4631, 4634, 4642, 4640
2899, 4636, 4635, 4643, 4644, 4638, 4637, 4645, 4616
2900, 4635, 4639, 4646, 4643, 4637, 4640, 4647, 4645
2901, 4639, 4641, 4648, 4646, 4640, 4642, 4620, 4647
2902, 4627, 4626, 4637, 4638, 3991, 4625, 4645, 4616
2903, 4631, 4634, 4642, 4640, 4630, 4028, 4620, 4647
2904, 4626, 4631, 4640, 4637, 4625, 4630, 4647, 4645
2905, 4625, 4630, 4647, 4645, 3991, 4028, 4620, 4616
2906, 4601, 4621, 4624, 4602, 3990, 3991, 4627, 4603
2907, 4602, 4624, 4636, 4609, 4603, 4627, 4638, 4610
2908, 4603, 4627, 4638, 4610, 3990, 3991, 4616, 4590
2909, 4609, 4636, 4644, 4615, 4610, 4638, 4616, 4590
2910, 4621, 4016, 4015, 4622, 3991, 3989, 4017, 4625
2911, 4622, 4015, 4018, 4628, 4625, 4017, 4019, 4630
2912, 4625, 4017, 4019, 4630, 3991, 3989, 3992, 4028
2913, 4628, 4018, 4020, 4632, 4630, 4019, 3992, 4028
2914, 4632, 4084, 4649, 4633, 4028, 4029, 4650, 4634
2915, 4633, 4649, 4651, 4641, 4634, 4650, 4652, 4642
2916, 4641, 4651, 4653, 4648, 4642, 4652, 4654, 4620
2917, 4634, 4650, 4652, 4642, 4028, 4029, 4654, 4620
2918, 4649, 4084, 4653, 4651, 4650, 4029, 4654, 4652
2919, 4028, 4029, 4654, 4620, 1724, 1823, 1826, 1725
2920, 4616, 4620, 4655, 4619, 1721, 1725, 1733, 1731
2921, 4620, 4654, 4656, 4655, 1725, 1826, 1835, 1733
2922, 4657, 4658, 4659, 4660, 4661, 4617, 4662, 4663
2923, 4664, 4612, 4611, 4657, 4665, 4614, 4613, 4661
2924, 4665, 4614, 4613, 4661, 4618, 4588, 4590, 4617
2925, 4657, 4611, 4615, 4658, 4661, 4613, 4590, 4617
2926, 4617, 4619, 4666, 4667, 1727, 1731, 1738, 1735
2927, 4619, 4655, 4668, 4666, 1731, 1733, 1740, 1738
2928, 4669, 4670, 4671, 4672, 4619, 4673, 4674, 4675
2929, 4670, 4676, 4677, 4671, 4673, 4678, 4679, 4674
2930, 4676, 4680, 4681, 4677, 4678, 4655, 4682, 4679
2931, 4672, 4671, 4683, 4684, 4675, 4674, 4685, 4686
2932, 4671, 4677, 4687, 4683, 4674, 4679, 4688, 4685
2933, 4677, 4681, 4689, 4687, 4679, 4682, 4690, 4688
2934, 4687, 4689, 4691, 4692, 4688, 4690, 4668, 4693
2935, 4675, 4674, 4685, 4686, 4619, 4673, 4694, 4666
2936, 4679, 4682, 4690, 4688, 4678, 4655, 4668, 4693
2937, 4674, 4679, 4688, 4685, 4673, 4678, 4693, 4694
2938, 4673, 4678, 4693, 4694, 4619, 4655, 4668, 4666
2939, 4658, 4669, 4672, 4659, 4617, 4619, 4675, 4662
2940, 4659, 4672, 4684, 4695, 4662, 4675, 4686, 4696
2941, 4662, 4675, 4686, 4696, 4617, 4619, 4666, 4667
2942, 4669, 4644, 4643, 4670, 4619, 4616, 4645, 4673
2943, 4670, 4643, 4646, 4676, 4673, 4645, 4647, 4678
2944, 4673, 4645, 4647, 4678, 4619, 4616, 4620, 4655
2945, 4676, 4646, 4648, 4680, 4678, 4647, 4620, 4655
2946, 4680, 4697, 4698, 4681, 4655, 4656, 4699, 4682
2947, 4681, 4698, 4700, 4689, 4682, 4699, 4701, 4690
2948, 4689, 4700, 4702, 4691, 4690, 4701, 4703, 4668
2949, 4682, 4699, 4701, 4690, 4655, 4656, 4703, 4668
2950, 4698, 4697, 4702, 4700, 4699, 4656, 4703, 4701
2951, 4655, 4656, 4703, 4668, 1733, 1835, 1841, 1740
2952, 2301, 2300, 3315, 3316, 4084, 4083, 4704, 4653
2953, 4705, 4706, 4707, 4708, 2301, 4709, 4710, 4711
2954, 4706, 4712, 4713, 4707, 4709, 4714, 4715, 4710
2955, 4712, 4716, 4717, 4713, 4714, 3316, 4718, 4715
2956, 4708, 4707, 4719, 4720, 4711, 4710, 4721, 4722
2957, 4707, 4713, 4723, 4719, 4710, 4715, 4724, 4721
2958, 4713, 4717, 4725, 4723, 4715, 4718, 4726, 4724
2959, 4720, 4719, 4633, 4632, 4722, 4721, 4649, 4084
2960, 4719, 4723, 4641, 4633, 4721, 4724, 4651, 4649
2961, 4723, 4725, 4648, 4641, 4724, 4726, 4653, 4651
2962, 4711, 4710, 4721, 4722, 2301, 4709, 4649, 4084
2963, 4715, 4718, 4726, 4724, 4714, 3316, 4653, 4651
2964, 4710, 4715, 4724, 4721, 4709, 4714, 4651, 4649
2965, 4709, 4714, 4651, 4649, 2301, 3316, 4653, 4084
2966, 4071, 4705, 4708, 4072, 2298, 2301, 4711, 4073
2967, 4072, 4708, 4720, 4080, 4073, 4711, 4722, 4081
2968, 4073, 4711, 4722, 4081, 2298, 2301, 4084, 4026
2969, 4080, 4720, 4632, 4020, 4081, 4722, 4084, 4026
2970, 4705, 3306, 3305, 4706, 2301, 2295, 3307, 4709
2971, 4706, 3305, 3308, 4712, 4709, 3307, 3309, 4714
2972, 4709, 3307, 3309, 4714, 2301, 2295, 3288, 3316
2973, 4712, 3308, 3310, 4716, 4714, 3309, 3288, 3316
2974, 2300, 2302, 3317, 3315, 4083, 4085, 4727, 4704
2975, 3316, 3315, 3318, 3319, 4653, 4704, 4728, 4697
2976, 3315, 3317, 3320, 3318, 4704, 4727, 4729, 4728
2977, 4084, 4083, 4704, 4653, 4029, 4088, 4730, 4654
2978, 4083, 4085, 4727, 4704, 4088, 4089, 4731, 4730
2979, 4653, 4704, 4728, 4697, 4654, 4730, 4732, 4656
2980, 4704, 4727, 4729, 4728, 4730, 4731, 4733, 4732
2981, 2302, 1761, 1762, 3317, 4085, 1764, 1763, 4727
2982, 3317, 1762, 1768, 3320, 4727, 1763, 1769, 4729
2983, 4085, 1764, 1763, 4727, 4089, 1776, 1775, 4731
2984, 4727, 1763, 1769, 4729, 4731, 1775, 1779, 4733
2985, 3319, 3318, 3341, 3342, 4697, 4728, 4734, 4702
2986, 4735, 4736, 4737, 4738, 3319, 4739, 4740, 4741
2987, 4736, 4742, 4743, 4737, 4739, 4744, 4745, 4740
2988, 4738, 4737, 4746, 4747, 4741, 4740, 4748, 4749
2989, 4737, 4743, 4750, 4746, 4740, 4745, 4751, 4748
2990, 4747, 4746, 4681, 4680, 4749, 4748, 4698, 4697
2991, 4746, 4750, 4689, 4681, 4748, 4751, 4700, 4698
2992, 4741, 4740, 4748, 4749, 3319, 4739, 4698, 4697
2993, 4740, 4745, 4751, 4748, 4739, 4744, 4700, 4698
2994, 4739, 4744, 4700, 4698, 3319, 3342, 4702, 4697
2995, 4716, 4735, 4738, 4717, 3316, 3319, 4741, 4718
2996, 4717, 4738, 4747, 4725, 4718, 4741, 4749, 4726
2997, 4718, 4741, 4749, 4726, 3316, 3319, 4697, 4653
2998, 4725, 4747, 4680, 4648, 4726, 4749, 4697, 4653
2999, 4735, 3336, 3335, 4736, 3319, 3313, 3337, 4739
3000, 4736, 3335, 3338, 4742, 4739, 3337, 3339, 4744
3001, 4739, 3337, 3339, 4744, 3319, 3313, 3322, 3342
3002, 3318, 3320, 3343, 3341, 4728, 4729, 4752, 4734
3003, 4697, 4728, 4734, 4702, 4656, 4732, 4753, 4703
3004, 4728, 4729, 4752, 4734, 4732, 4733, 4754, 4753
3005, 3320, 1768, 1772, 3343, 4729, 1769, 1773, 4752
3006, 4729, 1769, 1773, 4752, 4733, 1779, 1781, 4754
3007, 4029, 4088, 4730, 4654, 1823, 1824, 1825, 1826
3008, 4088, 4089, 4731, 4730, 1824, 1830, 1831, 1825
3009, 4654, 4730, 4732, 4656, 1826, 1825, 1834, 1835
3010, 4730, 4731, 4733, 4732, 1825, 1831, 1838, 1834
3011, 4089, 1776, 1775, 4731, 1830, 1784, 1783, 1831
3012, 4731, 1775, 1779, 4733, 1831, 1783, 1786, 1838
3013, 4656, 4732, 4753, 4703, 1835, 1834, 1840, 1841
3014, 4732, 4733, 4754, 4753, 1834, 1838, 1843, 1840
3015, 4733, 1779, 1781, 4754, 1838, 1786, 1788, 1843
3016, 1800, 2381, 3371, 1801, 1799, 4108, 4755, 1798
3017, 2381, 2382, 3372, 3371, 4108, 4109, 4756, 4755
3018, 1801, 3371, 3373, 1805, 1798, 4755, 4757, 1804
3019, 3371, 3372, 3374, 3373, 4755, 4756, 4758, 4757
3020, 1799, 4108, 4755, 1798, 1812, 4112, 4759, 1811
3021, 4108, 4109, 4756, 4755, 4112, 4113, 4760, 4759
3022, 1798, 4755, 4757, 1804, 1811, 4759, 4761, 1814
3023, 4755, 4756, 4758, 4757, 4759, 4760, 4762, 4761
3024, 2382, 2389, 3379, 3372, 4109, 4116, 4763, 4756
3025, 2389, 2390, 3380, 3379, 4116, 4117, 4764, 4763
3026, 3372, 3379, 3381, 3374, 4756, 4763, 4765, 4758
3027, 3379, 3380, 3382, 3381, 4763, 4764, 4766, 4765
3028, 4109, 4116, 4763, 4756, 4113, 4120, 4767, 4760
3029, 4116, 4117, 4764, 4763, 4120, 4121, 4768, 4767
3030, 4756, 4763, 4765, 4758, 4760, 4767, 4769, 4762
3031, 4763, 4764, 4766, 4765, 4767, 4768, 4770, 4769
3032, 1812, 4112, 4759, 1811, 1817, 4127, 4771, 1816
3033, 4112, 4113, 4760, 4759, 4127, 4128, 4772, 4771
3034, 1811, 4759, 4761, 1814, 1816, 4771, 4773, 1819
3035, 1817, 4127, 4771, 1816, 1857, 4131, 4774, 1858
3036, 4127, 4128, 4772, 4771, 4131, 4133, 4775, 4774
3037, 4113, 4120, 4767, 4760, 4128, 4138, 4776, 4772
3038, 4120, 4121, 4768, 4767, 4138, 4139, 4777, 4776
3039, 2390, 2452, 3399, 3380, 4117, 4154, 4778, 4764
3040, 2452, 2453, 3400, 3399, 4154, 4155, 4779, 4778
3041, 3380, 3399, 3401, 3382, 4764, 4778, 4780, 4766
3042, 3399, 3400, 3402, 3401, 4778, 4779, 4781, 4780
3043, 4117, 4154, 4778, 4764, 4121, 4159, 4782, 4768
3044, 4154, 4155, 4779, 4778, 4159, 4160, 4783, 4782
3045, 4764, 4778, 4780, 4766, 4768, 4782, 4784, 4770
3046, 2453, 2460, 3409, 3400, 4155, 4163, 4785, 4779
3047, 2460, 2461, 3410, 3409, 4163, 4164, 4786, 4785
3048, 3400, 3409, 3411, 3402, 4779, 4785, 4787, 4781
3049, 3409, 3410, 3412, 3411, 4785, 4786, 4788, 4787
3050, 4155, 4163, 4785, 4779, 4160, 4169, 4789, 4783
3051, 4163, 4164, 4786, 4785, 4169, 4170, 4790, 4789
3052, 4121, 4159, 4782, 4768, 4139, 4175, 4791, 4777
3053, 4159, 4160, 4783, 4782, 4175, 4176, 4792, 4791
3054, 2461, 2520, 3427, 3410, 4164, 4193, 4793, 4786
3055, 2520, 2521, 3428, 3427, 4193, 4194, 4794, 4793
3056, 3410, 3427, 3429, 3412, 4786, 4793, 4795, 4788
3057, 3427, 3428, 3430, 3429, 4793, 4794, 4796, 4795
3058, 4164, 4193, 4793, 4786, 4170, 4199, 4797, 4790
3059, 4193, 4194, 4794, 4793, 4199, 4200, 4798, 4797
3060, 2521, 2528, 3437, 3428, 4194, 4203, 4799, 4794
3061, 2528, 2529, 3438, 3437, 4203, 4204, 4800, 4799
3062, 3428, 3437, 3439, 3430, 4794, 4799, 4801, 4796
3063, 3437, 3438, 3440, 3439, 4799, 4800, 4802, 4801
3064, 4194, 4203, 4799, 4794, 4200, 4209, 4803, 4798
3065, 4203, 4204, 4800, 4799, 4209, 4210, 4804, 4803
3066, 2529, 2586, 3455, 3438, 4204, 4229, 4805, 4800
3067, 2586, 2587, 3456, 3455, 4229, 4230, 4806, 4805
3068, 3438, 3455, 3457, 3440, 4800, 4805, 4807, 4802
3069, 3455, 3456, 3458, 3457, 4805, 4806, 4808, 4807
3070, 4204, 4229, 4805, 4800, 4210, 4235, 4809, 4804
3071, 4229, 4230, 4806, 4805, 4235, 4236, 4810, 4809
3072, 2587, 2594, 3465, 3456, 4230, 4239, 4811, 4806
3073, 2594, 2595, 3466, 3465, 4239, 4240, 4812, 4811
3074, 3456, 3465, 3467, 3458, 4806, 4811, 4813, 4808
3075, 3465, 3466, 3468, 3467, 4811, 4812, 4814, 4813
3076, 4230, 4239, 4811, 4806, 4236, 4245, 4815, 4810
3077, 4239, 4240, 4812, 4811, 4245, 4246, 4816, 4815
3078, 2595, 2654, 3483, 3466, 4240, 4261, 4817, 4812
3079, 2654, 2655, 3484, 3483, 4261, 4262, 4818, 4817
3080, 3466, 3483, 3485, 3468, 4812, 4817, 4819, 4814
3081, 3483, 3484, 3486, 3485, 4817, 4818, 4820, 4819
3082, 4240, 4261, 4817, 4812, 4246, 4267, 4821, 4816
3083, 4261, 4262, 4818, 4817, 4267, 4268, 4822, 4821
3084, 2655, 2662, 3493, 3484, 4262, 4271, 4823, 4818
3085, 2662, 2663, 3494, 3493, 4271, 4272, 4824, 4823
3086, 3484, 3493, 3495, 3486, 4818, 4823, 4825, 4820
3087, 3493, 3494, 3496, 3495, 4823, 4824, 4826, 4825
3088, 4262, 4271, 4823, 4818, 4268, 4277, 4827, 4822
3089, 4271, 4272, 4824, 4823, 4277, 4278, 4828, 4827
3090, 2663, 2722, 3511, 3494, 4272, 4293, 4829, 4824
3091, 2722, 2723, 3512, 3511, 4293, 4294, 4830, 4829
3092, 3494, 3511, 3513, 3496, 4824, 4829, 4831, 4826
3093, 3511, 3512, 3514, 3513, 4829, 4830, 4832, 4831
3094, 4272, 4293, 4829, 4824, 4278, 4299, 4833, 4828
3095, 4293, 4294, 4830, 4829, 4299, 4300, 4834, 4833
3096, 2723, 2730, 3521, 3512, 4294, 4303, 4835, 4830
3097, 2730, 2731, 3522, 3521, 4303, 4304, 4836, 4835
3098, 3512, 3521, 3523, 3514, 4830, 4835, 4837, 4832
3099, 3521, 3522, 3524, 3523, 4835, 4836, 4838, 4837
3100, 4294, 4303, 4835, 4830, 4300, 4309, 4839, 4834
3101, 4303, 4304, 4836, 4835, 4309, 4310, 4840, 4839
3102, 2731, 2813, 3551, 3522, 4304, 4335, 4841, 4836
3103, 2813, 2814, 3552, 3551, 4335, 4336, 4842, 4841
3104, 3522, 3551, 3553, 3524, 4836, 4841, 4843, 4838
3105, 3551, 3552, 3554, 3553, 4841, 4842, 4844, 4843
3106, 4304, 4335, 4841, 4836, 4310, 4340, 4845, 4840
3107, 4335, 4336, 4842, 4841, 4340, 4341, 4846, 4845
3108, 2814, 2821, 3559, 3552, 4336, 4344, 4847, 4842
3109, 2821, 2822, 3560, 3559, 4344, 4345, 4848, 4847
3110, 3552, 3559, 3561, 3554, 4842, 4847, 4849, 4844
3111, 3559, 3560, 3562, 3561, 4847, 4848, 4850, 4849
3112, 4336, 4344, 4847, 4842, 4341, 4348, 4851, 4846
3113, 4344, 4345, 4848, 4847, 4348, 4349, 4852, 4851
3114, 4842, 4847, 4849, 4844, 4846, 4851, 4853, 4854
3115, 4847, 4848, 4850, 4849, 4851, 4852, 4855, 4853
3116, 4340, 4341, 4846, 4845, 4354, 4355, 4856, 4857
3117, 4341, 4348, 4851, 4846, 4355, 4360, 4858, 4856
3118, 4348, 4349, 4852, 4851, 4360, 4361, 4859, 4858
3119, 2822, 2854, 3576, 3560, 4345, 4372, 4860, 4848
3120, 2854, 2855, 3577, 3576, 4372, 4373, 4861, 4860
3121, 3560, 3576, 3578, 3562, 4848, 4860, 4862, 4850
3122, 3576, 3577, 3579, 3578, 4860, 4861, 4863, 4862
3123, 4345, 4372, 4860, 4848, 4349, 4376, 4864, 4852
3124, 4372, 4373, 4861, 4860, 4376, 4377, 4865, 4864
3125, 4848, 4860, 4862, 4850, 4852, 4864, 4866, 4855
3126, 4860, 4861, 4863, 4862, 4864, 4865, 4867, 4866
3127, 2855, 1885, 1886, 3577, 4373, 1888, 1887, 4861
3128, 3577, 1886, 1892, 3579, 4861, 1887, 1893, 4863
3129, 4373, 1888, 1887, 4861, 4377, 1900, 1899, 4865
3130, 4861, 1887, 1893, 4863, 4865, 1899, 1903, 4867
3131, 4349, 4376, 4864, 4852, 4361, 4383, 4868, 4859
3132, 4376, 4377, 4865, 4864, 4383, 4384, 4869, 4868
3133, 4383, 4384, 4869, 4868, 4390, 4392, 4870, 4871
3134, 4377, 1900, 1899, 4865, 4384, 1906, 1905, 4869
3135, 4865, 1899, 1903, 4867, 4869, 1905, 1908, 4872
3136, 4384, 1906, 1905, 4869, 4392, 1948, 1949, 4870
3137, 1916, 2986, 3682, 1917, 1915, 4443, 4873, 1914
3138, 2986, 2987, 3683, 3682, 4443, 4444, 4874, 4873
3139, 1917, 3682, 3684, 1921, 1914, 4873, 4875, 1920
3140, 1915, 4443, 4873, 1914, 1928, 4447, 4876, 1927
3141, 4443, 4444, 4874, 4873, 4447, 4448, 4877, 4876
3142, 1914, 4873, 4875, 1920, 1927, 4876, 4878, 1930
3143, 2987, 3019, 3742, 3683, 4444, 4485, 4879, 4874
3144, 4880, 4881, 3019, 4882, 4883, 4884, 4885, 4886
3145, 4887, 4880, 4882, 4888, 4889, 4883, 4886, 4890
3146, 4891, 4887, 4888, 3742, 4892, 4889, 4890, 4893
3147, 4894, 4895, 4881, 4880, 4896, 4897, 4884, 4883
3148, 4898, 4894, 4880, 4887, 4899, 4896, 4883, 4889
3149, 4900, 4898, 4887, 4891, 4901, 4899, 4889, 4892
3150, 4902, 4485, 4895, 4894, 4903, 4904, 4897, 4896
3151, 4905, 4902, 4894, 4898, 4906, 4903, 4896, 4899
3152, 4879, 4905, 4898, 4900, 4907, 4906, 4899, 4901
3153, 4902, 4485, 3019, 4882, 4894, 4895, 4881, 4880
3154, 4879, 4905, 4888, 3742, 4900, 4898, 4887, 4891
3155, 4905, 4902, 4882, 4888, 4898, 4894, 4880, 4887
3156, 4879, 4485, 3019, 3742, 4905, 4902, 4882, 4888
3157, 4881, 4461, 3018, 3019, 4884, 4462, 4463, 4885
3158, 4895, 4470, 4461, 4881, 4897, 4471, 4462, 4884
3159, 4485, 4449, 3018, 3019, 4895, 4470, 4461, 4881
3160, 4485, 4449, 4470, 4895, 4904, 4477, 4471, 4897
3161, 3708, 4882, 3019, 3017, 3709, 4886, 4885, 3710
3162, 3711, 4888, 4882, 3708, 3712, 4890, 4886, 3709
3163, 3685, 3742, 3019, 3017, 3711, 4888, 4882, 3708
3164, 3685, 3742, 4888, 3711, 3713, 4893, 4890, 3712
3165, 4908, 4891, 3742, 4909, 4910, 4892, 4893, 4911
3166, 4912, 4900, 4891, 4908, 4913, 4901, 4892, 4910
3167, 4914, 4879, 4900, 4912, 4915, 4907, 4901, 4913
3168, 4902, 4916, 4486, 4485, 4903, 4917, 4487, 4904
3169, 4905, 4918, 4916, 4902, 4906, 4919, 4917, 4903
3170, 4879, 4920, 4918, 4905, 4907, 4921, 4919, 4906
3171, 4879, 4920, 4486, 4485, 4905, 4918, 4916, 4902
3172, 4918, 4920, 4486, 4916, 4919, 4921, 4487, 4917
3173, 4922, 4923, 4924, 4925, 3683, 4926, 4927, 4928
3174, 4923, 4929, 4930, 4924, 4926, 4931, 4932, 4927
3175, 4929, 4909, 4908, 4930, 4931, 3742, 4891, 4932
3176, 4925, 4924, 4933, 4934, 4928, 4927, 4935, 4936
3177, 4924, 4930, 4937, 4933, 4927, 4932, 4938, 4935
3178, 4930, 4908, 4912, 4937, 4932, 4891, 4900, 4938
3179, 4934, 4933, 4939, 4940, 4936, 4935, 4941, 4874
3180, 4933, 4937, 4942, 4939, 4935, 4938, 4943, 4941
3181, 4937, 4912, 4914, 4942, 4938, 4900, 4879, 4943
3182, 4928, 4927, 4935, 4936, 3683, 4926, 4941, 4874
3183, 4932, 4891, 4900, 4938, 4931, 3742, 4879, 4943
3184, 4927, 4932, 4938, 4935, 4926, 4931, 4943, 4941
3185, 4926, 4931, 4943, 4941, 3683, 3742, 4879, 4874
3186, 4922, 3734, 3733, 4923, 3683, 3680, 3735, 4926
3187, 4923, 3733, 3736, 4929, 4926, 3735, 3737, 4931
3188, 4926, 3735, 3737, 4931, 3683, 3680, 3685, 3742
3189, 4929, 3736, 3719, 4909, 4931, 3737, 3685, 3742
3190, 3684, 4922, 4925, 4944, 3682, 3683, 4928, 4945
3191, 4944, 4925, 4934, 4946, 4945, 4928, 4936, 4947
3192, 4946, 4934, 4940, 4875, 4947, 4936, 4874, 4873
3193, 3684, 4944, 4946, 4875, 3682, 4945, 4947, 4873
3194, 4945, 4928, 4936, 4947, 3682, 3683, 4874, 4873
3195, 4948, 4940, 4939, 4949, 4877, 4874, 4941, 4950
3196, 4949, 4939, 4942, 4951, 4950, 4941, 4943, 4952
3197, 4951, 4942, 4914, 4953, 4952, 4943, 4879, 4920
3198, 4950, 4941, 4943, 4952, 4877, 4874, 4879, 4920
3199, 4948, 4949, 4951, 4953, 4877, 4950, 4952, 4920
3200, 4444, 4485, 4879, 4874, 4448, 4486, 4920, 4877
3201, 1921, 3684, 3756, 1924, 1920, 4875, 4954, 1923
3202, 4955, 4944, 3684, 4956, 4957, 4925, 4922, 4958
3203, 4959, 4955, 4956, 4960, 4961, 4957, 4958, 4962
3204, 4963, 4946, 4944, 4955, 4964, 4934, 4925, 4957
3205, 4965, 4963, 4955, 4959, 4966, 4964, 4957, 4961
3206, 4967, 4875, 4946, 4963, 4968, 4940, 4934, 4964
3207, 4969, 4967, 4963, 4965, 4970, 4968, 4964, 4966
3208, 4967, 4875, 3684, 4956, 4963, 4946, 4944, 4955
3209, 4969, 4967, 4956, 4960, 4965, 4963, 4955, 4959
3210, 4954, 4875, 3684, 3756, 4969, 4967, 4956, 4960
3211, 3752, 4956, 3684, 3681, 3753, 4958, 4922, 3734
3212, 3754, 4960, 4956, 3752, 3755, 4962, 4958, 3753
3213, 3743, 3756, 3684, 3681, 3754, 4960, 4956, 3752
3214, 4967, 4971, 4878, 4875, 4968, 4972, 4948, 4940
3215, 4969, 4973, 4971, 4967, 4970, 4974, 4972, 4968
3216, 4954, 4975, 4973, 4969, 4976, 4977, 4974, 4970
3217, 4954, 4975, 4878, 4875, 4969, 4973, 4971, 4967
3218, 4973, 4975, 4878, 4971, 4974, 4977, 4948, 4972
3219, 1920, 4875, 4954, 1923, 1930, 4878, 4975, 1932
3220, 1928, 4447, 4876, 1927, 1935, 1965, 1966, 1934
3221, 4447, 4448, 4877, 4876, 1965, 1969, 1970, 1966
3222, 1927, 4876, 4878, 1930, 1934, 1966, 1976, 1937
3223, 4876, 4877, 4948, 4878, 1966, 1970, 1978, 1976
3224, 4448, 4486, 4920, 4877, 1969, 1973, 1974, 1970
3225, 4486, 4487, 4921, 4920, 1973, 2007, 2010, 1974
3226, 4877, 4920, 4953, 4948, 1970, 1974, 1980, 1978
3227, 4920, 4921, 4978, 4953, 1974, 2010, 2022, 1980
3228, 1930, 4878, 4975, 1932, 1937, 1976, 1982, 1938
3229, 4878, 4948, 4977, 4975, 1976, 1978, 1984, 1982
3230, 4948, 4953, 4979, 4977, 1978, 1980, 1986, 1984
3231, 4940, 4939, 4980, 4968, 4948, 4949, 4981, 4972
3232, 4939, 4942, 4982, 4980, 4949, 4951, 4983, 4981
3233, 4942, 4914, 4984, 4982, 4951, 4953, 4985, 4983
3234, 4968, 4980, 4986, 4970, 4972, 4981, 4987, 4974
3235, 4980, 4982, 4988, 4986, 4981, 4983, 4989, 4987
3236, 4982, 4984, 4990, 4988, 4983, 4985, 4991, 4989
3237, 4970, 4986, 4992, 4976, 4974, 4987, 4993, 4977
3238, 4986, 4988, 4994, 4992, 4987, 4989, 4995, 4993
3239, 4988, 4990, 4996, 4994, 4989, 4991, 4979, 4995
3240, 4972, 4981, 4987, 4974, 4948, 4949, 4993, 4977
3241, 4983, 4985, 4991, 4989, 4951, 4953, 4979, 4995
3242, 4981, 4983, 4989, 4987, 4949, 4951, 4995, 4993
3243, 4949, 4951, 4995, 4993, 4948, 4953, 4979, 4977
3244, 4953, 4978, 4997, 4979, 1980, 2022, 2030, 1986
3245, 4487, 4548, 4998, 4921, 2007, 2008, 2009, 2010
3246, 4904, 4999, 5000, 4903, 4487, 5001, 5002, 4917
3247, 4999, 5003, 5004, 5000, 5001, 5005, 5006, 5002
3248, 5003, 5007, 5008, 5004, 5005, 4548, 5009, 5006
3249, 4903, 5000, 5010, 4906, 4917, 5002, 5011, 4919
3250, 5000, 5004, 5012, 5010, 5002, 5006, 5013, 5011
3251, 5004, 5008, 5014, 5012, 5006, 5009, 5015, 5013
3252, 4906, 5010, 5016, 4907, 4919, 5011, 5017, 4921
3253, 5010, 5012, 5018, 5016, 5011, 5013, 5019, 5017
3254, 5012, 5014, 5020, 5018, 5013, 5015, 4998, 5019
3255, 4917, 5002, 5011, 4919, 4487, 5001, 5017, 4921
3256, 5006, 5009, 5015, 5013, 5005, 4548, 4998, 5019
3257, 5002, 5006, 5013, 5011, 5001, 5005, 5019, 5017
3258, 5001, 5005, 5019, 5017, 4487, 4548, 4998, 4921
3259, 4904, 4477, 4542, 4999, 4487, 4484, 4543, 5001
3260, 4999, 4542, 4544, 5003, 5001, 4543, 4545, 5005
3261, 5001, 4543, 4545, 5005, 4487, 4484, 4524, 4548
3262, 5003, 4544, 4546, 5007, 5005, 4545, 4524, 4548
3263, 4548, 4549, 5021, 4998, 2008, 2014, 2015, 2009
3264, 4921, 4998, 5022, 4978, 2010, 2009, 2021, 2022
3265, 4998, 5021, 5023, 5022, 2009, 2015, 2025, 2021
3266, 4549, 4582, 5024, 5021, 2014, 2018, 2019, 2015
3267, 5025, 5026, 5027, 5028, 4549, 5029, 5030, 5031
3268, 5026, 5032, 5033, 5027, 5029, 5034, 5035, 5030
3269, 5032, 5036, 5037, 5033, 5034, 4582, 5038, 5035
3270, 5028, 5027, 5039, 5040, 5031, 5030, 5041, 5042
3271, 5027, 5033, 5043, 5039, 5030, 5035, 5044, 5041
3272, 5033, 5037, 5045, 5043, 5035, 5038, 5046, 5044
3273, 5040, 5039, 5047, 5048, 5042, 5041, 5049, 5021
3274, 5039, 5043, 5050, 5047, 5041, 5044, 5051, 5049
3275, 5031, 5030, 5041, 5042, 4549, 5029, 5049, 5021
3276, 5035, 5038, 5046, 5044, 5034, 4582, 5024, 5051
3277, 5030, 5035, 5044, 5041, 5029, 5034, 5051, 5049
3278, 5029, 5034, 5051, 5049, 4549, 4582, 5024, 5021
3279, 5007, 5025, 5028, 5008, 4548, 4549, 5031, 5009
3280, 5008, 5028, 5040, 5014, 5009, 5031, 5042, 5015
3281, 5009, 5031, 5042, 5015, 4548, 4549, 5021, 4998
3282, 5014, 5040, 5048, 5020, 5015, 5042, 5021, 4998
3283, 5025, 4573, 4572, 5026, 4549, 4547, 4574, 5029
3284, 5026, 4572, 4575, 5032, 5029, 4574, 4576, 5034
3285, 5029, 4574, 4576, 5034, 4549, 4547, 4550, 4582
3286, 5032, 4575, 4577, 5036, 5034, 4576, 4550, 4582
3287, 4582, 4583, 5052, 5024, 2018, 2044, 2047, 2019
3288, 5021, 5024, 5053, 5023, 2015, 2019, 2027, 2025
3289, 4978, 5022, 5054, 4997, 2022, 2021, 2029, 2030
3290, 4915, 5055, 5056, 5057, 4978, 5058, 5059, 5060
3291, 5055, 5061, 5062, 5056, 5058, 5063, 5064, 5059
3292, 5061, 5065, 5066, 5062, 5063, 5022, 5067, 5064
3293, 5057, 5056, 5068, 5069, 5060, 5059, 5070, 5071
3294, 5056, 5062, 5072, 5068, 5059, 5064, 5073, 5070
3295, 5062, 5066, 5074, 5072, 5064, 5067, 5075, 5073
3296, 5069, 5068, 5076, 5077, 5071, 5070, 5078, 4997
3297, 5060, 5059, 5070, 5071, 4978, 5058, 5078, 4997
3298, 5064, 5067, 5075, 5073, 5063, 5022, 5054, 5079
3299, 5059, 5064, 5073, 5070, 5058, 5063, 5079, 5078
3300, 5058, 5063, 5079, 5078, 4978, 5022, 5054, 4997
3301, 4914, 4915, 5057, 4984, 4953, 4978, 5060, 4985
3302, 4984, 5057, 5069, 4990, 4985, 5060, 5071, 4991
3303, 4985, 5060, 5071, 4991, 4953, 4978, 4997, 4979
3304, 4990, 5069, 5077, 4996, 4991, 5071, 4997, 4979
3305, 4915, 4907, 5016, 5055, 4978, 4921, 5017, 5058
3306, 5055, 5016, 5018, 5061, 5058, 5017, 5019, 5063
3307, 5058, 5017, 5019, 5063, 4978, 4921, 4998, 5022
3308, 5061, 5018, 5020, 5065, 5063, 5019, 4998, 5022
3309, 5022, 5023, 5080, 5054, 2021, 2025, 2032, 2029
3310, 5081, 5082, 5083, 5084, 5023, 5085, 5086, 5087
3311, 5065, 5081, 5084, 5066, 5022, 5023, 5087, 5067
3312, 5067, 5087, 5088, 5075, 5022, 5023, 5080, 5054
3313, 5081, 5048, 5047, 5082, 5023, 5021, 5049, 5085
3314, 5082, 5047, 5050, 5089, 5085, 5049, 5051, 5090
3315, 5085, 5049, 5051, 5090, 5023, 5021, 5024, 5053
3316, 2101, 2132, 2184, 2158, 5091, 5092, 5093, 5094
3317, 2125, 2115, 2127, 2122, 5095, 5096, 5097, 5098
3318, 2115, 2114, 2129, 2127, 5096, 2239, 2238, 5097
3319, 5096, 2239, 2238, 5097, 5099, 2245, 2244, 5100
3320, 2123, 2122, 2131, 2132, 5101, 5098, 5102, 5092
3321, 2122, 2127, 2134, 2131, 5098, 5097, 5103, 5102
3322, 2132, 2131, 2185, 2184, 5092, 5102, 5104, 5093
3323, 2131, 2134, 2189, 2185, 5102, 5103, 5105, 5104
3324, 5098, 5097, 5103, 5102, 5106, 5100, 5107, 5108
3325, 5092, 5102, 5104, 5093, 5109, 5108, 5110, 5111
3326, 5102, 5103, 5105, 5104, 5108, 5107, 5112, 5110
3327, 2127, 2129, 2135, 2134, 5097, 2238, 2242, 5103
3328, 2134, 2135, 2192, 2189, 5103, 2242, 2272, 5105
3329, 5097, 2238, 2242, 5103, 5100, 2244, 2248, 5107
3330, 5103, 2242, 2272, 5105, 5107, 2248, 2280, 5112
3331, 5106, 5100, 5107, 5108, 5113, 5114, 5115, 5116
3332, 5109, 5108, 5110, 5111, 5117, 5116, 5118, 5119
3333, 5108, 5107, 5112, 5110, 5116, 5115, 5120, 5118
3334, 5113, 5114, 5115, 5116, 5121, 5122, 5123, 5124
3335, 5117, 5116, 5118, 5119, 5125, 5124, 5126, 5127
3336, 5116, 5115, 5120, 5118, 5124, 5123, 5128, 5126
3337, 5100, 2244, 2248, 5107, 5114, 2250, 2254, 5115
3338, 5107, 2248, 2280, 5112, 5115, 2254, 2288, 5120
3339, 5114, 2250, 2254, 5115, 5122, 4033, 4040, 5123
3340, 5115, 2254, 2288, 5120, 5123, 4040, 4060, 5128
3341, 2155, 2158, 2157, 2152, 5129, 5094, 5130, 5131
3342, 2158, 2184, 2183, 2157, 5094, 5093, 5132, 5130
3343, 2152, 2157, 2166, 2164, 5131, 5130, 5133, 5134
3344, 2157, 2183, 2196, 2166, 5130, 5132, 5135, 5133
3345, 5094, 5093, 5132, 5130, 5136, 5111, 5137, 5138
3346, 5130, 5132, 5135, 5133, 5138, 5137, 5139, 5140
3347, 2160, 2164, 2171, 2168, 5141, 5134, 5142, 5143
3348, 2168, 2171, 3176, 3172, 5143, 5142, 5144, 5145
3349, 2164, 2166, 2172, 2171, 5134, 5133, 5146, 5142
3350, 2166, 2196, 2203, 2172, 5133, 5135, 5147, 5146
3351, 2171, 2172, 3179, 3176, 5142, 5146, 5148, 5144
3352, 2172, 2203, 3201, 3179, 5146, 5147, 5149, 5148
3353, 5134, 5133, 5146, 5142, 5150, 5140, 5151, 5152
3354, 5133, 5135, 5147, 5146, 5140, 5139, 5153, 5151
3355, 5142, 5146, 5148, 5144, 5152, 5151, 5154, 5155
3356, 5146, 5147, 5149, 5148, 5151, 5153, 5156, 5154
3357, 5136, 5111, 5137, 5138, 5157, 5119, 5158, 5159
3358, 5138, 5137, 5139, 5140, 5159, 5158, 5160, 5161
3359, 5159, 5158, 5160, 5161, 5162, 5163, 5164, 5165
3360, 5140, 5139, 5153, 5151, 5161, 5160, 5166, 5167
3361, 5151, 5153, 5156, 5154, 5167, 5166, 5168, 5169
3362, 5161, 5160, 5166, 5167, 5165, 5164, 5170, 5171
3363, 5167, 5166, 5168, 5169, 5171, 5170, 5172, 5173
3364, 2184, 2185, 2182, 2183, 5093, 5104, 5174, 5132
3365, 2185, 2189, 2188, 2182, 5104, 5105, 5175, 5174
3366, 2183, 2182, 2195, 2196, 5132, 5174, 5176, 5135
3367, 2182, 2188, 2198, 2195, 5174, 5175, 5177, 5176
3368, 5093, 5104, 5174, 5132, 5111, 5110, 5178, 5137
3369, 5104, 5105, 5175, 5174, 5110, 5112, 5179, 5178
3370, 5132, 5174, 5176, 5135, 5137, 5178, 5180, 5139
3371, 5174, 5175, 5177, 5176, 5178, 5179, 5181, 5180
3372, 2189, 2192, 2191, 2188, 5105, 2272, 2271, 5175
3373, 2188, 2191, 2200, 2198, 5175, 2271, 2275, 5177
3374, 5105, 2272, 2271, 5175, 5112, 2280, 2279, 5179
3375, 5175, 2271, 2275, 5177, 5179, 2279, 2283, 5181
3376, 2196, 2195, 2202, 2203, 5135, 5176, 5182, 5147
3377, 2195, 2198, 2205, 2202, 5176, 5177, 5183, 5182
3378, 2203, 2202, 3202, 3201, 5147, 5182, 5184, 5149
3379, 2202, 2205, 3206, 3202, 5182, 5183, 5185, 5184
3380, 5135, 5176, 5182, 5147, 5139, 5180, 5186, 5153
3381, 5176, 5177, 5183, 5182, 5180, 5181, 5187, 5186
3382, 5147, 5182, 5184, 5149, 5153, 5186, 5188, 5156
3383, 5182, 5183, 5185, 5184, 5186, 5187, 5189, 5188
3384, 2198, 2200, 2206, 2205, 5177, 2275, 2277, 5183
3385, 2205, 2206, 3209, 3206, 5183, 2277, 3290, 5185
3386, 5177, 2275, 2277, 5183, 5181, 2283, 2285, 5187
3387, 5183, 2277, 3290, 5185, 5187, 2285, 3298, 5189
3388, 5111, 5110, 5178, 5137, 5119, 5118, 5190, 5158
3389, 5110, 5112, 5179, 5178, 5118, 5120, 5191, 5190
3390, 5137, 5178, 5180, 5139, 5158, 5190, 5192, 5160
3391, 5178, 5179, 5181, 5180, 5190, 5191, 5193, 5192
3392, 5119, 5118, 5190, 5158, 5127, 5126, 5194, 5163
3393, 5118, 5120, 5191, 5190, 5126, 5128, 5195, 5194
3394, 5158, 5190, 5192, 5160, 5163, 5194, 5196, 5164
3395, 5190, 5191, 5193, 5192, 5194, 5195, 5197, 5196
3396, 5112, 2280, 2279, 5179, 5120, 2288, 2287, 5191
3397, 5179, 2279, 2283, 5181, 5191, 2287, 2290, 5193
3398, 5120, 2288, 2287, 5191, 5128, 4060, 4061, 5195
3399, 5191, 2287, 2290, 5193, 5195, 4061, 4067, 5197
3400, 5139, 5180, 5186, 5153, 5160, 5192, 5198, 5166
3401, 5180, 5181, 5187, 5186, 5192, 5193, 5199, 5198
3402, 5153, 5186, 5188, 5156, 5166, 5198, 5200, 5168
3403, 5186, 5187, 5189, 5188, 5198, 5199, 5201, 5200
3404, 5160, 5192, 5198, 5166, 5164, 5196, 5202, 5170
3405, 5192, 5193, 5199, 5198, 5196, 5197, 5203, 5202
3406, 5166, 5198, 5200, 5168, 5170, 5202, 5204, 5172
3407, 5198, 5199, 5201, 5200, 5202, 5203, 5205, 5204
3408, 5181, 2283, 2285, 5187, 5193, 2290, 2292, 5199
3409, 5187, 2285, 3298, 5189, 5199, 2292, 3306, 5201
3410, 5193, 2290, 2292, 5199, 5197, 4067, 4071, 5203
3411, 5199, 2292, 3306, 5201, 5203, 4071, 4705, 5205
3412, 2959, 3064, 3063, 2960, 2958, 5206, 5207, 2957
3413, 2960, 3063, 3049, 2963, 2957, 5207, 5208, 2962
3414, 3063, 3067, 3051, 3049, 5207, 5209, 5210, 5208
3415, 2963, 3049, 3048, 2994, 2962, 5208, 5211, 2993
3416, 3049, 3051, 3050, 3048, 5208, 5210, 5212, 5211
3417, 2957, 5207, 5208, 2962, 2967, 5213, 5214, 2966
3418, 5207, 5209, 5210, 5208, 5213, 5215, 5216, 5214
3419, 2962, 5208, 5211, 2993, 2966, 5214, 5217, 3006
3420, 5208, 5210, 5212, 5211, 5214, 5216, 5218, 5217
3421, 3067, 3071, 3053, 3051, 5209, 5219, 5220, 5210
3422, 3051, 3053, 3052, 3050, 5210, 5220, 5221, 5212
3423, 3053, 3109, 3107, 3052, 5220, 5222, 5223, 5221
3424, 5210, 5220, 5221, 5212, 5216, 5224, 5225, 5218
3425, 2967, 5213, 5214, 2966, 2971, 5226, 5227, 2970
3426, 2966, 5214, 5217, 3006, 2970, 5227, 5228, 3013
3427, 5214, 5216, 5218, 5217, 5227, 5229, 5230, 5228
3428, 2971, 5226, 5227, 2970, 4412, 5231, 5232, 4413
3429, 2970, 5227, 5228, 3013, 4413, 5232, 5233, 4455
3430, 5227, 5229, 5230, 5228, 5232, 5234, 5235, 5233
3431, 2994, 3048, 5236, 2995, 2993, 5211, 5237, 2992
3432, 3048, 3050, 5238, 5236, 5211, 5212, 5239, 5237
3433, 2995, 5236, 5240, 2999, 2992, 5237, 5241, 2998
3434, 5236, 5238, 5242, 5240, 5237, 5239, 5243, 5241
3435, 2993, 5211, 5237, 2992, 3006, 5217, 5244, 3005
3436, 5211, 5212, 5239, 5237, 5217, 5218, 5245, 5244
3437, 2992, 5237, 5241, 2998, 3005, 5244, 5246, 3008
3438, 5237, 5239, 5243, 5241, 5244, 5245, 5247, 5246
3439, 3050, 3052, 5248, 5238, 5212, 5221, 5249, 5239
3440, 3052, 3107, 5250, 5248, 5221, 5223, 5251, 5249
3441, 5238, 5248, 5252, 5242, 5239, 5249, 5253, 5243
3442, 5212, 5221, 5249, 5239, 5218, 5225, 5254, 5245
3443, 5221, 5223, 5251, 5249, 5225, 5255, 5256, 5254
3444, 5239, 5249, 5253, 5243, 5245, 5254, 5257, 5247
3445, 2999, 5240, 5258, 3002, 2998, 5241, 5259, 3001
3446, 5240, 5242, 5260, 5258, 5241, 5243, 5261, 5259
3447, 3002, 5258, 5262, 3691, 3001, 5259, 5263, 3690
3448, 5258, 5260, 5264, 5262, 5259, 5261, 5265, 5263
3449, 2998, 5241, 5259, 3001, 3008, 5246, 5266, 3010
3450, 5241, 5243, 5261, 5259, 5246, 5247, 5267, 5266
3451, 3001, 5259, 5263, 3690, 3010, 5266, 5268, 3703
3452, 5242, 5252, 5269, 5260, 5243, 5253, 5270, 5261
3453, 5271, 5272, 5252, 5273, 5274, 5275, 5276, 5277
3454, 5278, 5271, 5273, 5279, 5280, 5274, 5277, 5281
3455, 5282, 5278, 5279, 5269, 5283, 5280, 5281, 5284
3456, 5285, 5286, 5272, 5271, 5287, 5288, 5275, 5274
3457, 5289, 5285, 5271, 5278, 5290, 5287, 5274, 5280
3458, 5291, 5289, 5278, 5282, 5292, 5290, 5280, 5283
3459, 5293, 5253, 5286, 5285, 5294, 5295, 5288, 5287
3460, 5296, 5293, 5285, 5289, 5297, 5294, 5287, 5290
3461, 5270, 5296, 5289, 5291, 5298, 5297, 5290, 5292
3462, 5293, 5253, 5252, 5273, 5285, 5286, 5272, 5271
3463, 5270, 5296, 5279, 5269, 5291, 5289, 5278, 5282
3464, 5296, 5293, 5273, 5279, 5289, 5285, 5271, 5278
3465, 5270, 5253, 5252, 5269, 5296, 5293, 5273, 5279
3466, 5272, 5299, 5248, 5252, 5275, 5300, 5250, 5276
3467, 5286, 5301, 5299, 5272, 5288, 5302, 5300, 5275
3468, 5253, 5249, 5301, 5286, 5295, 5251, 5302, 5288
3469, 5301, 5249, 5248, 5299, 5302, 5251, 5250, 5300
3470, 5253, 5249, 5248, 5252, 5286, 5301, 5299, 5272
3471, 5273, 5252, 5303, 5304, 5277, 5276, 5305, 5306
3472, 5279, 5273, 5304, 5307, 5281, 5277, 5306, 5308
3473, 5269, 5279, 5307, 5309, 5284, 5281, 5308, 5310
3474, 5269, 5252, 5303, 5309, 5279, 5273, 5304, 5307
3475, 5307, 5304, 5303, 5309, 5308, 5306, 5305, 5310
3476, 5260, 5269, 5311, 5264, 5261, 5270, 5312, 5265
3477, 5243, 5253, 5270, 5261, 5247, 5257, 5313, 5267
3478, 3006, 5217, 5244, 3005, 3013, 5228, 5314, 3012
3479, 5217, 5218, 5245, 5244, 5228, 5230, 5315, 5314
3480, 3005, 5244, 5246, 3008, 3012, 5314, 5316, 3015
3481, 5244, 5245, 5247, 5246, 5314, 5315, 5317, 5316
3482, 3013, 5228, 5314, 3012, 4455, 5233, 5318, 4456
3483, 5228, 5230, 5315, 5314, 5233, 5235, 5319, 5318
3484, 3012, 5314, 5316, 3015, 4456, 5318, 5320, 4460
3485, 5314, 5315, 5317, 5316, 5318, 5319, 5321, 5320
3486, 5218, 5225, 5254, 5245, 5230, 5322, 5323, 5315
3487, 5245, 5254, 5257, 5247, 5315, 5323, 5324, 5317
3488, 5230, 5322, 5323, 5315, 5235, 5325, 5326, 5319
3489, 5315, 5323, 5324, 5317, 5319, 5326, 5327, 5321
3490, 3008, 5246, 5266, 3010, 3015, 5316, 5328, 3016
3491, 5246, 5247, 5267, 5266, 5316, 5317, 5329, 5328
3492, 3010, 5266, 5268, 3703, 3016, 5328, 5330, 3710
3493, 3015, 5316, 5328, 3016, 4460, 5320, 5331, 4463
3494, 5316, 5317, 5329, 5328, 5320, 5321, 5332, 5331
3495, 3016, 5328, 5330, 3710, 4463, 5331, 5333, 4885
3496, 5247, 5257, 5313, 5267, 5317, 5324, 5334, 5329
3497, 5335, 5336, 5257, 5337, 5338, 5339, 5340, 5341
3498, 5342, 5335, 5337, 5343, 5344, 5338, 5341, 5345
3499, 5346, 5342, 5343, 5313, 5347, 5344, 5345, 5348
3500, 5349, 5350, 5336, 5335, 5351, 5352, 5339, 5338
3501, 5353, 5349, 5335, 5342, 5354, 5351, 5338, 5344
3502, 5355, 5353, 5342, 5346, 5356, 5354, 5344, 5347
3503, 5357, 5324, 5350, 5349, 5358, 5359, 5352, 5351
3504, 5360, 5357, 5349, 5353, 5361, 5358, 5351, 5354
3505, 5334, 5360, 5353, 5355, 5362, 5361, 5354, 5356
3506, 5357, 5324, 5257, 5337, 5349, 5350, 5336, 5335
3507, 5334, 5360, 5343, 5313, 5355, 5353, 5342, 5346
3508, 5360, 5357, 5337, 5343, 5353, 5349, 5335, 5342
3509, 5334, 5324, 5257, 5313, 5360, 5357, 5337, 5343
3510, 5293, 5337, 5257, 5253, 5294, 5341, 5340, 5295
3511, 5296, 5343, 5337, 5293, 5297, 5345, 5341, 5294
3512, 5270, 5313, 5257, 5253, 5296, 5343, 5337, 5293
3513, 5270, 5313, 5343, 5296, 5298, 5348, 5345, 5297
3514, 5363, 5346, 5313, 5364, 5365, 5347, 5348, 5366
3515, 5367, 5355, 5346, 5363, 5368, 5356, 5347, 5365
3516, 5369, 5334, 5355, 5367, 5370, 5362, 5356, 5368
3517, 5336, 5371, 5254, 5257, 5339, 5372, 5256, 5340
3518, 5350, 5373, 5371, 5336, 5352, 5374, 5372, 5339
3519, 5324, 5323, 5373, 5350, 5359, 5375, 5374, 5352
3520, 5373, 5323, 5254, 5371, 5374, 5375, 5256, 5372
3521, 5324, 5323, 5254, 5257, 5350, 5373, 5371, 5336
3522, 5376, 5377, 5378, 5379, 5267, 5380, 5381, 5382
3523, 5377, 5383, 5384, 5378, 5380, 5385, 5386, 5381
3524, 5383, 5364, 5363, 5384, 5385, 5313, 5346, 5386
3525, 5379, 5378, 5387, 5388, 5382, 5381, 5389, 5390
3526, 5378, 5384, 5391, 5387, 5381, 5386, 5392, 5389
3527, 5384, 5363, 5367, 5391, 5386, 5346, 5355, 5392
3528, 5388, 5387, 5393, 5394, 5390, 5389, 5395, 5329
3529, 5387, 5391, 5396, 5393, 5389, 5392, 5397, 5395
3530, 5391, 5367, 5369, 5396, 5392, 5355, 5334, 5397
3531, 5382, 5381, 5389, 5390, 5267, 5380, 5395, 5329
3532, 5386, 5346, 5355, 5392, 5385, 5313, 5334, 5397
3533, 5381, 5386, 5392, 5389, 5380, 5385, 5397, 5395
3534, 5380, 5385, 5397, 5395, 5267, 5313, 5334, 5329
3535, 5268, 5376, 5379, 5398, 5266, 5267, 5382, 5399
3536, 5398, 5379, 5388, 5400, 5399, 5382, 5390, 5401
3537, 5400, 5388, 5394, 5330, 5401, 5390, 5329, 5328
3538, 5268, 5398, 5400, 5330, 5266, 5399, 5401, 5328
3539, 5399, 5382, 5390, 5401, 5266, 5267, 5329, 5328
3540, 5265, 5402, 5377, 5376, 5261, 5403, 5380, 5267
3541, 5402, 5404, 5383, 5377, 5403, 5405, 5385, 5380
3542, 5404, 5312, 5364, 5383, 5405, 5270, 5313, 5385
3543, 5403, 5405, 5385, 5380, 5261, 5270, 5313, 5267
3544, 5265, 5312, 5404, 5402, 5261, 5270, 5405, 5403
3545, 5317, 5324, 5334, 5329, 5321, 5327, 5406, 5332
3546, 3107, 3106, 5407, 5250, 5223, 5408, 5409, 5251
3547, 5276, 5410, 5411, 5275, 5250, 5412, 5413, 5300
3548, 5410, 5414, 5415, 5411, 5412, 5416, 5417, 5413
3549, 5414, 5418, 5419, 5415, 5416, 5407, 5420, 5417
3550, 5275, 5411, 5421, 5288, 5300, 5413, 5422, 5302
3551, 5411, 5415, 5423, 5421, 5413, 5417, 5424, 5422
3552, 5415, 5419, 5425, 5423, 5417, 5420, 5426, 5424
3553, 5288, 5421, 5427, 5295, 5302, 5422, 5428, 5251
3554, 5421, 5423, 5429, 5427, 5422, 5424, 5430, 5428
3555, 5423, 5425, 5431, 5429, 5424, 5426, 5409, 5430
3556, 5300, 5413, 5422, 5302, 5250, 5412, 5428, 5251
3557, 5417, 5420, 5426, 5424, 5416, 5407, 5409, 5430
3558, 5413, 5417, 5424, 5422, 5412, 5416, 5430, 5428
3559, 5412, 5416, 5430, 5428, 5250, 5407, 5409, 5251
3560, 5305, 5432, 5410, 5276, 5433, 5434, 5412, 5250
3561, 5432, 5435, 5414, 5410, 5434, 5436, 5416, 5412
3562, 5435, 5437, 5418, 5414, 5436, 5438, 5407, 5416
3563, 5434, 5436, 5416, 5412, 5433, 5438, 5407, 5250
3564, 5305, 5437, 5435, 5432, 5433, 5438, 5436, 5434
3565, 5439, 5440, 5441, 5442, 5443, 5444, 5445, 5446
3566, 5440, 5447, 5448, 5441, 5444, 5449, 5450, 5445
3567, 5418, 5439, 5442, 5419, 5407, 5443, 5446, 5420
3568, 5419, 5442, 5451, 5425, 5420, 5446, 5452, 5426
3569, 5453, 5454, 5440, 5439, 5455, 5456, 5444, 5443
3570, 5454, 5457, 5447, 5440, 5456, 5458, 5449, 5444
3571, 5457, 5459, 5460, 5447, 5458, 5461, 5462, 5449
3572, 5456, 5458, 5449, 5444, 5455, 5461, 5462, 5443
3573, 5453, 5459, 5457, 5454, 5455, 5461, 5458, 5456
3574, 5340, 5463, 5464, 5339, 5256, 5465, 5466, 5372
3575, 5339, 5464, 5467, 5352, 5372, 5466, 5468, 5374
3576, 5340, 5295, 5427, 5463, 5256, 5251, 5428, 5465
3577, 5463, 5427, 5429, 5469, 5465, 5428, 5430, 5470
3578, 3172, 3176, 3175, 3169, 5145, 5144, 5471, 5472
3579, 3176, 3179, 3178, 3175, 5144, 5148, 5473, 5471
3580, 3179, 3201, 3200, 3178, 5148, 5149, 5474, 5473
3581, 3175, 3178, 3186, 3184, 5471, 5473, 5475, 5476
3582, 3178, 3200, 3213, 3186, 5473, 5474, 5477, 5475
3583, 5144, 5148, 5473, 5471, 5155, 5154, 5478, 5479
3584, 5148, 5149, 5474, 5473, 5154, 5156, 5480, 5478
3585, 5473, 5474, 5477, 5475, 5478, 5480, 5481, 5482
3586, 3184, 3186, 3191, 3189, 5476, 5475, 5483, 5484
3587, 3186, 3213, 3220, 3191, 5475, 5477, 5485, 5483
3588, 3191, 3220, 3247, 3237, 5483, 5485, 5486, 5487
3589, 5475, 5477, 5485, 5483, 5482, 5481, 5488, 5489
3590, 5154, 5156, 5480, 5478, 5169, 5168, 5490, 5491
3591, 5478, 5480, 5481, 5482, 5491, 5490, 5492, 5493
3592, 5169, 5168, 5490, 5491, 5173, 5172, 5494, 5495
3593, 5491, 5490, 5492, 5493, 5495, 5494, 5496, 5497
3594, 3201, 3202, 3199, 3200, 5149, 5184, 5498, 5474
3595, 3202, 3206, 3205, 3199, 5184, 5185, 5499, 5498
3596, 3200, 3199, 3212, 3213, 5474, 5498, 5500, 5477
3597, 3199, 3205, 3215, 3212, 5498, 5499, 5501, 5500
3598, 5149, 5184, 5498, 5474, 5156, 5188, 5502, 5480
3599, 5184, 5185, 5499, 5498, 5188, 5189, 5503, 5502
3600, 5474, 5498, 5500, 5477, 5480, 5502, 5504, 5481
3601, 5498, 5499, 5501, 5500, 5502, 5503, 5505, 5504
3602, 3206, 3209, 3208, 3205, 5185, 3290, 3289, 5499
3603, 3205, 3208, 3217, 3215, 5499, 3289, 3293, 5501
3604, 5185, 3290, 3289, 5499, 5189, 3298, 3297, 5503
3605, 5499, 3289, 3293, 5501, 5503, 3297, 3301, 5505
3606, 3213, 3212, 3219, 3220, 5477, 5500, 5506, 5485
3607, 3212, 3215, 3222, 3219, 5500, 5501, 5507, 5506
3608, 3220, 3219, 3248, 3247, 5485, 5506, 5508, 5486
3609, 3219, 3222, 3252, 3248, 5506, 5507, 5509, 5508
3610, 5477, 5500, 5506, 5485, 5481, 5504, 5510, 5488
3611, 5500, 5501, 5507, 5506, 5504, 5505, 5511, 5510
3612, 5485, 5506, 5508, 5486, 5488, 5510, 5512, 5513
3613, 5506, 5507, 5509, 5508, 5510, 5511, 5514, 5512
3614, 3215, 3217, 3223, 3222, 5501, 3293, 3295, 5507
3615, 3222, 3223, 3255, 3252, 5507, 3295, 3324, 5509
3616, 5501, 3293, 3295, 5507, 5505, 3301, 3303, 5511
3617, 5507, 3295, 3324, 5509, 5511, 3303, 3330, 5514
3618, 5156, 5188, 5502, 5480, 5168, 5200, 5515, 5490
3619, 5188, 5189, 5503, 5502, 5200, 5201, 5516, 5515
3620, 5480, 5502, 5504, 5481, 5490, 5515, 5517, 5492
3621, 5502, 5503, 5505, 5504, 5515, 5516, 5518, 5517
3622, 5168, 5200, 5515, 5490, 5172, 5204, 5519, 5494
3623, 5200, 5201, 5516, 5515, 5204, 5205, 5520, 5519
3624, 5490, 5515, 5517, 5492, 5494, 5519, 5521, 5496
3625, 5515, 5516, 5518, 5517, 5519, 5520, 5522, 5521
3626, 5189, 3298, 3297, 5503, 5201, 3306, 3305, 5516
3627, 5503, 3297, 3301, 5505, 5516, 3305, 3308, 5518
3628, 5201, 3306, 3305, 5516, 5205, 4705, 4706, 5520
3629, 5516, 3305, 3308, 5518, 5520, 4706, 4712, 5522
3630, 5481, 5504, 5510, 5488, 5492, 5517, 5523, 5524
3631, 5504, 5505, 5511, 5510, 5517, 5518, 5525, 5523
3632, 5488, 5510, 5512, 5513, 5524, 5523, 5526, 5527
3633, 5510, 5511, 5514, 5512, 5523, 5525, 5528, 5526
3634, 5492, 5517, 5523, 5524, 5496, 5521, 5529, 5530
3635, 5517, 5518, 5525, 5523, 5521, 5522, 5531, 5529
3636, 5524, 5523, 5526, 5527, 5530, 5529, 5532, 5533
3637, 5523, 5525, 5528, 5526, 5529, 5531, 5534, 5532
3638, 5505, 3301, 3303, 5511, 5518, 3308, 3310, 5525
3639, 5511, 3303, 3330, 5514, 5525, 3310, 3336, 5528
3640, 5518, 3308, 3310, 5525, 5522, 4712, 4716, 5531
3641, 5525, 3310, 3336, 5528, 5531, 4716, 4735, 5534
3642, 3247, 3248, 3245, 3246, 5486, 5508, 5535, 5536
3643, 3248, 3252, 3251, 3245, 5508, 5509, 5537, 5535
3644, 3245, 3251, 3261, 3258, 5535, 5537, 5538, 5539
3645, 5508, 5509, 5537, 5535, 5512, 5514, 5540, 5541
3646, 3252, 3255, 3254, 3251, 5509, 3324, 3323, 5537
3647, 3251, 3254, 3263, 3261, 5537, 3323, 3327, 5538
3648, 5509, 3324, 3323, 5537, 5514, 3330, 3329, 5540
3649, 5537, 3323, 3327, 5538, 5540, 3329, 3333, 5542
3650, 5512, 5514, 5540, 5541, 5526, 5528, 5543, 5544
3651, 5526, 5528, 5543, 5544, 5532, 5534, 5545, 5546
3652, 5514, 3330, 3329, 5540, 5528, 3336, 3335, 5543
3653, 5528, 3336, 3335, 5543, 5534, 4735, 4736, 5545
3654, 3648, 3649, 3646, 3647, 3722, 3721, 5547, 3745
3655, 3649, 3653, 3652, 3646, 3721, 3725, 5548, 5547
3656, 3647, 3646, 3659, 3660, 3745, 5547, 5549, 3747
3657, 3646, 3652, 3662, 3659, 5547, 5548, 5550, 5549
3658, 3722, 3721, 5547, 3745, 3728, 3727, 5551, 3749
3659, 3721, 3725, 5548, 5547, 3727, 3731, 5552, 5551
3660, 3745, 5547, 5549, 3747, 3749, 5551, 5553, 3751
3661, 5547, 5548, 5550, 5549, 5551, 5552, 5554, 5553
3662, 3653, 3656, 3655, 3652, 3725, 3714, 5555, 5548
3663, 3656, 3716, 3801, 3655, 3714, 3715, 5556, 5555
3664, 3652, 3655, 3664, 3662, 5548, 5555, 5557, 5550
3665, 3655, 3801, 3809, 3664, 5555, 5556, 5558, 5557
3666, 3725, 3714, 5555, 5548, 3731, 3717, 5559, 5552
3667, 3714, 3715, 5556, 5555, 3717, 3718, 5560, 5559
3668, 5548, 5555, 5557, 5550, 5552, 5559, 5561, 5554
3669, 5555, 5556, 5558, 5557, 5559, 5560, 5562, 5561
3670, 3728, 3727, 5551, 3749, 3734, 3733, 5563, 3753
3671, 3727, 3731, 5552, 5551, 3733, 3736, 5564, 5563
3672, 3749, 5551, 5553, 3751, 3753, 5563, 5565, 3755
3673, 5551, 5552, 5554, 5553, 5563, 5564, 5566, 5565
3674, 3734, 3733, 5563, 3753, 4922, 4923, 5567, 4958
3675, 3733, 3736, 5564, 5563, 4923, 4929, 5568, 5567
3676, 3753, 5563, 5565, 3755, 4958, 5567, 5569, 4962
3677, 5563, 5564, 5566, 5565, 5567, 5568, 5570, 5569
3678, 3731, 3717, 5559, 5552, 3736, 3719, 5571, 5564
3679, 3717, 3718, 5560, 5559, 3719, 3720, 5572, 5571
3680, 5552, 5559, 5561, 5554, 5564, 5571, 5573, 5566
3681, 3736, 3719, 5571, 5564, 4929, 4909, 5574, 5568
3682, 3719, 3720, 5572, 5571, 4909, 4911, 5575, 5574
3683, 5564, 5571, 5573, 5566, 5568, 5574, 5576, 5570
3684, 3691, 5262, 5577, 3692, 3690, 5263, 5578, 3689
3685, 5262, 5264, 5579, 5577, 5263, 5265, 5580, 5578
3686, 3692, 5577, 5581, 3696, 3689, 5578, 5582, 3695
3687, 5577, 5579, 5583, 5581, 5578, 5580, 5584, 5582
3688, 3690, 5263, 5578, 3689, 3703, 5268, 5585, 3702
3689, 3689, 5578, 5582, 3695, 3702, 5585, 5586, 3705
3690, 5264, 5311, 5587, 5579, 5265, 5312, 5588, 5580
3691, 5589, 5590, 5311, 5591, 5592, 5593, 5594, 5595
3692, 5596, 5589, 5591, 5597, 5598, 5592, 5595, 5599
3693, 5600, 5596, 5597, 5587, 5601, 5598, 5599, 5602
3694, 5603, 5604, 5590, 5589, 5605, 5606, 5593, 5592
3695, 5607, 5603, 5589, 5596, 5608, 5605, 5592, 5598
3696, 5609, 5607, 5596, 5600, 5610, 5608, 5598, 5601
3697, 5611, 5312, 5604, 5603, 5612, 5613, 5606, 5605
3698, 5614, 5611, 5603, 5607, 5615, 5612, 5605, 5608
3699, 5588, 5614, 5607, 5609, 5616, 5615, 5608, 5610
3700, 5611, 5312, 5311, 5591, 5603, 5604, 5590, 5589
3701, 5588, 5614, 5597, 5587, 5609, 5607, 5596, 5600
3702, 5614, 5611, 5591, 5597, 5607, 5603, 5589, 5596
3703, 5588, 5312, 5311, 5587, 5614, 5611, 5591, 5597
3704, 5590, 5282, 5269, 5311, 5593, 5283, 5284, 5594
3705, 5604, 5291, 5282, 5590, 5606, 5292, 5283, 5593
3706, 5312, 5270, 5269, 5311, 5604, 5291, 5282, 5590
3707, 5312, 5270, 5291, 5604, 5613, 5298, 5292, 5606
3708, 5617, 5364, 5312, 5611, 5618, 5366, 5613, 5612
3709, 5619, 5617, 5611, 5614, 5620, 5618, 5612, 5615
3710, 5621, 5619, 5614, 5588, 5622, 5620, 5615, 5616
3711, 5591, 5311, 5623, 5624, 5595, 5594, 5625, 5626
3712, 5597, 5591, 5624, 5627, 5599, 5595, 5626, 5628
3713, 5587, 5597, 5627, 5629, 5602, 5599, 5628, 5630
3714, 5587, 5311, 5623, 5629, 5597, 5591, 5624, 5627
3715, 5627, 5624, 5623, 5629, 5628, 5626, 5625, 5630
3716, 5631, 5600, 5587, 5632, 5633, 5601, 5602, 5634
3717, 5635, 5609, 5600, 5631, 5636, 5610, 5601, 5633
3718, 5637, 5588, 5609, 5635, 5638, 5616, 5610, 5636
3719, 5637, 5588, 5587, 5632, 5635, 5609, 5600, 5631
3720, 5637, 5635, 5631, 5632, 5638, 5636, 5633, 5634
3721, 5579, 5587, 5632, 5583, 5580, 5588, 5637, 5584
3722, 5639, 5640, 5265, 5402, 5641, 5642, 5376, 5377
3723, 5643, 5639, 5402, 5404, 5644, 5641, 5377, 5383
3724, 5611, 5643, 5404, 5312, 5617, 5644, 5383, 5364
3725, 5645, 5646, 5640, 5639, 5647, 5648, 5642, 5641
3726, 5649, 5645, 5639, 5643, 5650, 5647, 5641, 5644
3727, 5614, 5649, 5643, 5611, 5619, 5650, 5644, 5617
3728, 5651, 5580, 5646, 5645, 5652, 5653, 5648, 5647
3729, 5654, 5651, 5645, 5649, 5655, 5652, 5647, 5650
3730, 5588, 5654, 5649, 5614, 5621, 5655, 5650, 5619
3731, 5651, 5580, 5265, 5402, 5645, 5646, 5640, 5639
3732, 5588, 5654, 5404, 5312, 5614, 5649, 5643, 5611
3733, 5654, 5651, 5402, 5404, 5649, 5645, 5639, 5643
3734, 5588, 5580, 5265, 5312, 5654, 5651, 5402, 5404
3735, 5640, 5656, 5263, 5265, 5642, 5657, 5268, 5376
3736, 5646, 5658, 5656, 5640, 5648, 5659, 5657, 5642
3737, 5580, 5578, 5658, 5646, 5653, 5585, 5659, 5648
3738, 5658, 5578, 5263, 5656, 5659, 5585, 5268, 5657
3739, 5580, 5578, 5263, 5265, 5646, 5658, 5656, 5640
3740, 3696, 5581, 3783, 3699, 3695, 5582, 5660, 3698
3741, 5581, 5583, 3785, 3783, 5582, 5584, 5661, 5660
3742, 3699, 3783, 3782, 3716, 3698, 5660, 5662, 3715
3743, 3783, 3785, 3784, 3782, 5660, 5661, 5663, 5662
3744, 3695, 5582, 5660, 3698, 3705, 5586, 5664, 3707
3745, 3698, 5660, 5662, 3715, 3707, 5664, 5665, 3718
3746, 5583, 5632, 3787, 3785, 5584, 5637, 5666, 5661
3747, 5632, 5634, 3850, 3787, 5637, 5638, 5667, 5666
3748, 3785, 3787, 3786, 3784, 5661, 5666, 5668, 5663
3749, 3787, 3850, 3848, 3786, 5666, 5667, 5669, 5668
3750, 5670, 5671, 5584, 5672, 5673, 5674, 5675, 5676
3751, 5677, 5670, 5672, 5678, 5679, 5673, 5676, 5680
3752, 5681, 5677, 5678, 5637, 5682, 5679, 5680, 5683
3753, 5684, 5685, 5671, 5670, 5686, 5687, 5674, 5673
3754, 5688, 5684, 5670, 5677, 5689, 5686, 5673, 5679
3755, 5690, 5688, 5677, 5681, 5691, 5689, 5679, 5682
3756, 5692, 5661, 5685, 5684, 5693, 5694, 5687, 5686
3757, 5695, 5692, 5684, 5688, 5696, 5693, 5686, 5689
3758, 5666, 5695, 5688, 5690, 5697, 5696, 5689, 5691
3759, 5692, 5661, 5584, 5672, 5684, 5685, 5671, 5670
3760, 5666, 5695, 5678, 5637, 5690, 5688, 5677, 5681
3761, 5695, 5692, 5672, 5678, 5688, 5684, 5670, 5677
3762, 5666, 5661, 5584, 5637, 5695, 5692, 5672, 5678
3763, 5651, 5672, 5584, 5580, 5652, 5676, 5675, 5653
3764, 5654, 5678, 5672, 5651, 5655, 5680, 5676, 5652
3765, 5588, 5637, 5584, 5580, 5654, 5678, 5672, 5651
3766, 5588, 5637, 5678, 5654, 5621, 5683, 5680, 5655
3767, 5671, 5698, 5582, 5584, 5674, 5699, 5586, 5675
3768, 5685, 5700, 5698, 5671, 5687, 5701, 5699, 5674
3769, 5661, 5660, 5700, 5685, 5694, 5664, 5701, 5687
3770, 5700, 5660, 5582, 5698, 5701, 5664, 5586, 5699
3771, 5661, 5660, 5582, 5584, 5685, 5700, 5698, 5671
3772, 5692, 5702, 5663, 5661, 5693, 5703, 5704, 5694
3773, 5695, 5705, 5702, 5692, 5696, 5706, 5703, 5693
3774, 5666, 5668, 5705, 5695, 5697, 5707, 5706, 5696
3775, 5666, 5668, 5663, 5661, 5695, 5705, 5702, 5692
3776, 5705, 5668, 5663, 5702, 5706, 5707, 5704, 5703
3777, 3703, 5268, 5585, 3702, 3710, 5330, 5708, 3709
3778, 5709, 5398, 5268, 5657, 5710, 5379, 5376, 5642
3779, 5711, 5709, 5657, 5659, 5712, 5710, 5642, 5648
3780, 5713, 5711, 5659, 5585, 5714, 5712, 5648, 5653
3781, 5715, 5400, 5398, 5709, 5716, 5388, 5379, 5710
3782, 5717, 5715, 5709, 5711, 5718, 5716, 5710, 5712
3783, 5719, 5717, 5711, 5713, 5720, 5718, 5712, 5714
3784, 5721, 5330, 5400, 5715, 5722, 5394, 5388, 5716
3785, 5723, 5721, 5715, 5717, 5724, 5722, 5716, 5718
3786, 5708, 5723, 5717, 5719, 5725, 5724, 5718, 5720
3787, 5721, 5330, 5268, 5657, 5715, 5400, 5398, 5709
3788, 5708, 5723, 5659, 5585, 5719, 5717, 5711, 5713
3789, 5723, 5721, 5657, 5659, 5717, 5715, 5709, 5711
3790, 5708, 5330, 5268, 5585, 5723, 5721, 5657, 5659
3791, 3702, 5585, 5586, 3705, 3709, 5708, 5726, 3712
3792, 3710, 5330, 5708, 3709, 4885, 5333, 5727, 4886
3793, 3709, 5708, 5726, 3712, 4886, 5727, 5728, 4890
3794, 3705, 5586, 5664, 3707, 3712, 5726, 5729, 3713
3795, 5730, 5731, 5586, 5699, 5732, 5733, 5675, 5674
3796, 5734, 5730, 5699, 5701, 5735, 5732, 5674, 5687
3797, 5736, 5734, 5701, 5664, 5737, 5735, 5687, 5694
3798, 5738, 5739, 5731, 5730, 5740, 5741, 5733, 5732
3799, 5742, 5738, 5730, 5734, 5743, 5740, 5732, 5735
3800, 5744, 5742, 5734, 5736, 5745, 5743, 5735, 5737
3801, 5746, 5726, 5739, 5738, 5747, 5748, 5741, 5740
3802, 5749, 5746, 5738, 5742, 5750, 5747, 5740, 5743
3803, 5729, 5749, 5742, 5744, 5751, 5750, 5743, 5745
3804, 5746, 5726, 5586, 5699, 5738, 5739, 5731, 5730
3805, 5729, 5749, 5701, 5664, 5744, 5742, 5734, 5736
3806, 5749, 5746, 5699, 5701, 5742, 5738, 5730, 5734
3807, 5729, 5726, 5586, 5664, 5749, 5746, 5699, 5701
3808, 5731, 5713, 5585, 5586, 5733, 5714, 5653, 5675
3809, 5739, 5719, 5713, 5731, 5741, 5720, 5714, 5733
3810, 5726, 5708, 5585, 5586, 5739, 5719, 5713, 5731
3811, 5726, 5708, 5719, 5739, 5748, 5725, 5720, 5741
3812, 5752, 5736, 5664, 5665, 5753, 5737, 5694, 5704
3813, 5754, 5744, 5736, 5752, 5755, 5745, 5737, 5753
3814, 5756, 5729, 5744, 5754, 5757, 5751, 5745, 5755
3815, 5756, 5729, 5664, 5665, 5754, 5744, 5736, 5752
3816, 5756, 5754, 5752, 5665, 5757, 5755, 5753, 5704
3817, 3707, 5664, 5665, 3718, 3713, 5729, 5756, 3720
3818, 3712, 5726, 5729, 3713, 4890, 5728, 5758, 4893
3819, 3713, 5729, 5756, 3720, 4893, 5758, 5759, 4911
3820, 5634, 5760, 3849, 3850, 5638, 5761, 5762, 5667
3821, 5763, 5633, 5634, 5764, 5765, 5601, 5602, 5766
3822, 5767, 5763, 5764, 5768, 5769, 5765, 5766, 5770
3823, 5771, 5767, 5768, 5760, 5772, 5769, 5770, 5773
3824, 5774, 5636, 5633, 5763, 5775, 5610, 5601, 5765
3825, 5776, 5774, 5763, 5767, 5777, 5775, 5765, 5769
3826, 5778, 5776, 5767, 5771, 5779, 5777, 5769, 5772
3827, 5780, 5638, 5636, 5774, 5781, 5616, 5610, 5775
3828, 5782, 5780, 5774, 5776, 5783, 5781, 5775, 5777
3829, 5761, 5782, 5776, 5778, 5784, 5783, 5777, 5779
3830, 5780, 5638, 5634, 5764, 5774, 5636, 5633, 5763
3831, 5761, 5782, 5768, 5760, 5778, 5776, 5767, 5771
3832, 5782, 5780, 5764, 5768, 5776, 5774, 5763, 5767
3833, 5761, 5638, 5634, 5760, 5782, 5780, 5764, 5768
3834, 5785, 5786, 5638, 5780, 5787, 5622, 5616, 5781
3835, 5788, 5785, 5780, 5782, 5789, 5787, 5781, 5783
3836, 5764, 5634, 5790, 5791, 5766, 5602, 5630, 5792
3837, 5768, 5764, 5791, 5793, 5770, 5766, 5792, 5794
3838, 5760, 5768, 5793, 5795, 5773, 5770, 5794, 5796
3839, 5760, 5634, 5790, 5795, 5768, 5764, 5791, 5793
3840, 5793, 5791, 5790, 5795, 5794, 5792, 5630, 5796
3841, 5797, 5798, 5638, 5780, 5799, 5800, 5786, 5785
3842, 5801, 5802, 5798, 5797, 5803, 5804, 5800, 5799
3843, 5805, 5667, 5638, 5780, 5801, 5802, 5798, 5797
3844, 5798, 5681, 5637, 5638, 5800, 5682, 5683, 5786
3845, 5802, 5690, 5681, 5798, 5804, 5691, 5682, 5800
3846, 5667, 5666, 5637, 5638, 5802, 5690, 5681, 5798
3847, 5667, 5666, 5690, 5802, 5806, 5697, 5691, 5804
3848, 5807, 5808, 5809, 5810, 5811, 5812, 5813, 5814
3849, 5815, 5807, 5810, 5816, 5817, 5811, 5814, 5818
3850, 5819, 5820, 5808, 5807, 5821, 5822, 5812, 5811
3851, 5808, 5771, 5760, 5809, 5812, 5772, 5773, 5813
3852, 5820, 5778, 5771, 5808, 5822, 5779, 5772, 5812
3853, 5810, 5809, 5823, 5824, 5814, 5813, 5825, 5826
3854, 5816, 5810, 5824, 5827, 5818, 5814, 5826, 5828
3855, 5829, 5816, 5827, 5830, 5831, 5818, 5828, 5832
3856, 5829, 5809, 5823, 5830, 5816, 5810, 5824, 5827
3857, 5827, 5824, 5823, 5830, 5828, 5826, 5825, 5832
3858, 3716, 3782, 3800, 3801, 3715, 5662, 5833, 5556
3859, 3782, 3784, 3803, 3800, 5662, 5663, 5834, 5833
3860, 3801, 3800, 3808, 3809, 5556, 5833, 5835, 5558
3861, 3715, 5662, 5833, 5556, 3718, 5665, 5836, 5560
3862, 5662, 5663, 5834, 5833, 5665, 5704, 5837, 5836
3863, 3784, 3786, 3805, 3803, 5663, 5668, 5838, 5834
3864, 3718, 5665, 5836, 5560, 3720, 5756, 5839, 5572
3865, 3720, 5756, 5839, 5572, 4911, 5759, 5840, 5575
3866, 5841, 5753, 5704, 5703, 5842, 5737, 5694, 5693
3867, 5843, 5841, 5703, 5706, 5844, 5842, 5693, 5696
3868, 5845, 5755, 5753, 5841, 5846, 5745, 5737, 5842
3869, 5847, 5845, 5841, 5843, 5848, 5846, 5842, 5844
3870, 5849, 5757, 5755, 5845, 5850, 5751, 5745, 5846
3871, 5849, 5757, 5704, 5703, 5845, 5755, 5753, 5841
3872, 5851, 5852, 5853, 5854, 3909, 3943, 3993, 3970
3873, 5855, 4035, 4034, 5856, 5857, 4044, 4043, 5858
3874, 5121, 5122, 5123, 5124, 5859, 5856, 5860, 5861
3875, 5125, 5124, 5126, 5127, 5862, 5861, 5863, 5864
3876, 5124, 5123, 5128, 5126, 5861, 5860, 5865, 5863
3877, 5859, 5856, 5860, 5861, 5866, 5858, 5867, 5868
3878, 5862, 5861, 5863, 5864, 5852, 5868, 5869, 5853
3879, 5861, 5860, 5865, 5863, 5868, 5867, 5870, 5869
3880, 5122, 4033, 4040, 5123, 5856, 4034, 4041, 5860
3881, 5123, 4040, 4060, 5128, 5860, 4041, 4063, 5865
3882, 5856, 4034, 4041, 5860, 5858, 4043, 4047, 5867
3883, 5860, 4041, 4063, 5865, 5867, 4047, 4075, 5870
3884, 5871, 5857, 5858, 5866, 3931, 3926, 3938, 3932
3885, 5857, 4044, 4043, 5858, 3926, 3925, 3940, 3938
3886, 5872, 5866, 5868, 5852, 3933, 3932, 3942, 3943
3887, 5866, 5858, 5867, 5868, 3932, 3938, 3945, 3942
3888, 5852, 5868, 5869, 5853, 3943, 3942, 3994, 3993
3889, 5868, 5867, 5870, 5869, 3942, 3945, 4000, 3994
3890, 5858, 4043, 4047, 5867, 3938, 3940, 3947, 3945
3891, 5867, 4047, 4075, 5870, 3945, 3947, 4004, 4000
3892, 5873, 5127, 5163, 5162, 5874, 5864, 5875, 5876
3893, 5162, 5163, 5164, 5165, 5876, 5875, 5877, 5878
3894, 5874, 5864, 5875, 5876, 5854, 5853, 5879, 5880
3895, 5876, 5875, 5877, 5878, 5880, 5879, 5881, 5882
3896, 5165, 5164, 5170, 5171, 5878, 5877, 5883, 5884
3897, 5171, 5170, 5172, 5173, 5884, 5883, 5885, 5886
3898, 5887, 5878, 5884, 5888, 5889, 5882, 5890, 5891
3899, 5878, 5877, 5883, 5884, 5882, 5881, 5892, 5890
3900, 5888, 5884, 5886, 5893, 5891, 5890, 5894, 5895
3901, 5884, 5883, 5885, 5886, 5890, 5892, 5896, 5894
3902, 5897, 5854, 5880, 5898, 3963, 3970, 3971, 3964
3903, 5854, 5853, 5879, 5880, 3970, 3993, 3996, 3971
3904, 5898, 5880, 5882, 5889, 3964, 3971, 3979, 3977
3905, 5880, 5879, 5881, 5882, 3971, 3996, 4008, 3979
3906, 5899, 5889, 5891, 5900, 3974, 3977, 3984, 3981
3907, 5900, 5891, 5895, 5901, 3981, 3984, 4597, 4592
3908, 5889, 5882, 5890, 5891, 3977, 3979, 3986, 3984
3909, 5882, 5881, 5892, 5890, 3979, 4008, 4016, 3986
3910, 5891, 5890, 5894, 5895, 3984, 3986, 4601, 4597
3911, 5890, 5892, 5896, 5894, 3986, 4016, 4621, 4601
3912, 5127, 5126, 5194, 5163, 5864, 5863, 5902, 5875
3913, 5126, 5128, 5195, 5194, 5863, 5865, 5903, 5902
3914, 5163, 5194, 5196, 5164, 5875, 5902, 5904, 5877
3915, 5194, 5195, 5197, 5196, 5902, 5903, 5905, 5904
3916, 5864, 5863, 5902, 5875, 5853, 5869, 5906, 5879
3917, 5863, 5865, 5903, 5902, 5869, 5870, 5907, 5906
3918, 5875, 5902, 5904, 5877, 5879, 5906, 5908, 5881
3919, 5902, 5903, 5905, 5904, 5906, 5907, 5909, 5908
3920, 5128, 4060, 4061, 5195, 5865, 4063, 4062, 5903
3921, 5195, 4061, 4067, 5197, 5903, 4062, 4068, 5905
3922, 5865, 4063, 4062, 5903, 5870, 4075, 4074, 5907
3923, 5903, 4062, 4068, 5905, 5907, 4074, 4078, 5909
3924, 5164, 5196, 5202, 5170, 5877, 5904, 5910, 5883
3925, 5196, 5197, 5203, 5202, 5904, 5905, 5911, 5910
3926, 5170, 5202, 5204, 5172, 5883, 5910, 5912, 5885
3927, 5202, 5203, 5205, 5204, 5910, 5911, 5913, 5912
3928, 5877, 5904, 5910, 5883, 5881, 5908, 5914, 5892
3929, 5904, 5905, 5911, 5910, 5908, 5909, 5915, 5914
3930, 5883, 5910, 5912, 5885, 5892, 5914, 5916, 5896
3931, 5910, 5911, 5913, 5912, 5914, 5915, 5917, 5916
3932, 5197, 4067, 4071, 5203, 5905, 4068, 4072, 5911
3933, 5203, 4071, 4705, 5205, 5911, 4072, 4708, 5913
3934, 5905, 4068, 4072, 5911, 5909, 4078, 4080, 5915
3935, 5911, 4072, 4708, 5913, 5915, 4080, 4720, 5917
3936, 5853, 5869, 5906, 5879, 3993, 3994, 3995, 3996
3937, 5869, 5870, 5907, 5906, 3994, 4000, 4001, 3995
3938, 5879, 5906, 5908, 5881, 3996, 3995, 4007, 4008
3939, 5906, 5907, 5909, 5908, 3995, 4001, 4011, 4007
3940, 5870, 4075, 4074, 5907, 4000, 4004, 4005, 4001
3941, 5907, 4074, 4078, 5909, 4001, 4005, 4013, 4011
3942, 5881, 5908, 5914, 5892, 4008, 4007, 4015, 4016
3943, 5908, 5909, 5915, 5914, 4007, 4011, 4018, 4015
3944, 5892, 5914, 5916, 5896, 4016, 4015, 4622, 4621
3945, 5914, 5915, 5917, 5916, 4015, 4018, 4628, 4622
3946, 5909, 4078, 4080, 5915, 4011, 4013, 4020, 4018
3947, 5915, 4080, 4720, 5917, 4018, 4020, 4632, 4628
3948, 4412, 5231, 5232, 4413, 4411, 5918, 5919, 4410
3949, 4413, 5232, 5233, 4455, 4410, 5919, 5920, 4454
3950, 5232, 5234, 5235, 5233, 5919, 5921, 5922, 5920
3951, 4411, 5918, 5919, 4410, 4417, 5923, 5924, 4421
3952, 5918, 5925, 5921, 5919, 5923, 5926, 5927, 5924
3953, 4410, 5919, 5920, 4454, 4421, 5924, 5928, 4467
3954, 5919, 5921, 5922, 5920, 5924, 5927, 5929, 5928
3955, 5234, 5930, 5325, 5235, 5921, 5931, 5932, 5922
3956, 5921, 5931, 5932, 5922, 5927, 5933, 5934, 5929
3957, 4418, 5935, 5923, 4417, 4425, 4490, 4491, 4424
3958, 4417, 5923, 5924, 4421, 4424, 4491, 4502, 4427
3959, 5923, 5926, 5927, 5924, 4491, 4495, 4504, 4502
3960, 4421, 5924, 5928, 4467, 4427, 4502, 4525, 4474
3961, 5924, 5927, 5929, 5928, 4502, 4504, 4529, 4525
3962, 5926, 5936, 5933, 5927, 4495, 4499, 4506, 4504
3963, 5927, 5933, 5934, 5929, 4504, 4506, 4533, 4529
3964, 5933, 5937, 5938, 5934, 4506, 4518, 4551, 4533
3965, 4455, 5233, 5318, 4456, 4454, 5920, 5939, 4453
3966, 5233, 5235, 5319, 5318, 5920, 5922, 5940, 5939
3967, 4456, 5318, 5320, 4460, 4453, 5939, 5941, 4459
3968, 5318, 5319, 5321, 5320, 5939, 5940, 5942, 5941
3969, 4454, 5920, 5939, 4453, 4467, 5928, 5943, 4466
3970, 5920, 5922, 5940, 5939, 5928, 5929, 5944, 5943
3971, 4453, 5939, 5941, 4459, 4466, 5943, 5945, 4469
3972, 5939, 5940, 5942, 5941, 5943, 5944, 5946, 5945
3973, 5235, 5325, 5326, 5319, 5922, 5932, 5947, 5940
3974, 5319, 5326, 5327, 5321, 5940, 5947, 5948, 5942
3975, 5922, 5932, 5947, 5940, 5929, 5934, 5949, 5944
3976, 5932, 5950, 5951, 5947, 5934, 5938, 5952, 5949
3977, 5940, 5947, 5948, 5942, 5944, 5949, 5953, 5946
3978, 4460, 5320, 5331, 4463, 4459, 5941, 5954, 4462
3979, 5320, 5321, 5332, 5331, 5941, 5942, 5955, 5954
3980, 4463, 5331, 5333, 4885, 4462, 5954, 5956, 4884
3981, 4459, 5941, 5954, 4462, 4469, 5945, 5957, 4471
3982, 5941, 5942, 5955, 5954, 5945, 5946, 5958, 5957
3983, 4462, 5954, 5956, 4884, 4471, 5957, 5959, 4897
3984, 5321, 5327, 5406, 5332, 5942, 5948, 5960, 5955
3985, 5961, 5962, 5327, 5963, 5964, 5965, 5966, 5967
3986, 5968, 5961, 5963, 5969, 5970, 5964, 5967, 5971
3987, 5972, 5968, 5969, 5406, 5973, 5970, 5971, 5974
3988, 5975, 5976, 5962, 5961, 5977, 5978, 5965, 5964
3989, 5979, 5975, 5961, 5968, 5980, 5977, 5964, 5970
3990, 5981, 5979, 5968, 5972, 5982, 5980, 5970, 5973
3991, 5983, 5948, 5976, 5975, 5984, 5985, 5978, 5977
3992, 5986, 5983, 5975, 5979, 5987, 5984, 5977, 5980
3993, 5960, 5986, 5979, 5981, 5988, 5987, 5980, 5982
3994, 5983, 5948, 5327, 5963, 5975, 5976, 5962, 5961
3995, 5960, 5986, 5969, 5406, 5981, 5979, 5968, 5972
3996, 5986, 5983, 5963, 5969, 5979, 5975, 5961, 5968
3997, 5960, 5948, 5327, 5406, 5986, 5983, 5963, 5969
3998, 5357, 5963, 5327, 5324, 5358, 5967, 5966, 5359
3999, 5360, 5969, 5963, 5357, 5361, 5971, 5967, 5358
4000, 5334, 5406, 5327, 5324, 5360, 5969, 5963, 5357
4001, 5334, 5406, 5969, 5360, 5362, 5974, 5971, 5361
4002, 5989, 5972, 5406, 5990, 5991, 5973, 5974, 5992
4003, 5993, 5981, 5972, 5989, 5994, 5982, 5973, 5991
4004, 5995, 5960, 5981, 5993, 5996, 5988, 5982, 5994
4005, 5962, 5997, 5326, 5327, 5965, 5998, 5999, 5966
4006, 5976, 6000, 5997, 5962, 5978, 6001, 5998, 5965
4007, 5948, 5947, 6000, 5976, 5985, 5951, 6001, 5978
4008, 6000, 5947, 5326, 5997, 6001, 5951, 5999, 5998
4009, 5948, 5947, 5326, 5327, 5976, 6000, 5997, 5962
4010, 5983, 6002, 5953, 5948, 5984, 6003, 6004, 5985
4011, 5986, 6005, 6002, 5983, 5987, 6006, 6003, 5984
4012, 5960, 6007, 6005, 5986, 5988, 6008, 6006, 5987
4013, 5960, 6007, 5953, 5948, 5986, 6005, 6002, 5983
4014, 6005, 6007, 5953, 6002, 6006, 6008, 6004, 6003
4015, 6009, 6010, 6011, 6012, 5332, 6013, 6014, 6015
4016, 6010, 6016, 6017, 6011, 6013, 6018, 6019, 6014
4017, 6016, 5990, 5989, 6017, 6018, 5406, 5972, 6019
4018, 6012, 6011, 6020, 6021, 6015, 6014, 6022, 6023
4019, 6011, 6017, 6024, 6020, 6014, 6019, 6025, 6022
4020, 6017, 5989, 5993, 6024, 6019, 5972, 5981, 6025
4021, 6021, 6020, 6026, 6027, 6023, 6022, 6028, 5955
4022, 6020, 6024, 6029, 6026, 6022, 6025, 6030, 6028
4023, 6024, 5993, 5995, 6029, 6025, 5981, 5960, 6030
4024, 6015, 6014, 6022, 6023, 5332, 6013, 6028, 5955
4025, 6019, 5972, 5981, 6025, 6018, 5406, 5960, 6030
4026, 6014, 6019, 6025, 6022, 6013, 6018, 6030, 6028
4027, 6013, 6018, 6030, 6028, 5332, 5406, 5960, 5955
4028, 6009, 5394, 5393, 6010, 5332, 5329, 5395, 6013
4029, 6010, 5393, 5396, 6016, 6013, 5395, 5397, 6018
4030, 6013, 5395, 5397, 6018, 5332, 5329, 5334, 5406
4031, 6016, 5396, 5369, 5990, 6018, 5397, 5334, 5406
4032, 5333, 6009, 6012, 6031, 5331, 5332, 6015, 6032
4033, 6031, 6012, 6021, 6033, 6032, 6015, 6023, 6034
4034, 6033, 6021, 6027, 5956, 6034, 6023, 5955, 5954
4035, 5333, 6031, 6033, 5956, 5331, 6032, 6034, 5954
4036, 6032, 6015, 6023, 6034, 5331, 5332, 5955, 5954
4037, 6035, 6027, 6026, 6036, 5958, 5955, 6028, 6037
4038, 6036, 6026, 6029, 6038, 6037, 6028, 6030, 6039
4039, 6038, 6029, 5995, 6040, 6039, 6030, 5960, 6007
4040, 6037, 6028, 6030, 6039, 5958, 5955, 5960, 6007
4041, 6035, 6036, 6038, 6040, 5958, 6037, 6039, 6007
4042, 5942, 5948, 5960, 5955, 5946, 5953, 6007, 5958
4043, 4467, 5928, 5943, 4466, 4474, 4525, 4526, 4473
4044, 5928, 5929, 5944, 5943, 4525, 4529, 4530, 4526
4045, 4466, 5943, 5945, 4469, 4473, 4526, 4536, 4476
4046, 5943, 5944, 5946, 5945, 4526, 4530, 4538, 4536
4047, 5929, 5934, 5949, 5944, 4529, 4533, 4534, 4530
4048, 5934, 5938, 5952, 5949, 4533, 4551, 4554, 4534
4049, 5944, 5949, 5953, 5946, 4530, 4534, 4540, 4538
4050, 5949, 5952, 6004, 5953, 4534, 4554, 4563, 4540
4051, 4469, 5945, 5957, 4471, 4476, 4536, 4542, 4477
4052, 5945, 5946, 5958, 5957, 4536, 4538, 4544, 4542
4053, 4471, 5957, 5959, 4897, 4477, 4542, 4999, 4904
4054, 5957, 5958, 6035, 5959, 4542, 4544, 5003, 4999
4055, 5946, 5953, 6007, 5958, 4538, 4540, 4546, 4544
4056, 5953, 6004, 6008, 6007, 4540, 4563, 4573, 4546
4057, 5958, 6007, 6040, 6035, 4544, 4546, 5007, 5003
4058, 6007, 6008, 6041, 6040, 4546, 4573, 5025, 5007
4059, 5965, 6042, 6043, 5978, 5998, 6044, 6045, 6001
4060, 5978, 6043, 6046, 5985, 6001, 6045, 6047, 5951
4061, 6004, 5985, 6046, 6048, 5952, 5951, 6047, 6049
4062, 6048, 6046, 6050, 6051, 6049, 6047, 6052, 6053
4063, 6004, 6048, 6051, 6054, 5952, 6049, 6053, 6055
4064, 6054, 6056, 6057, 6058, 6059, 6060, 6061, 6062
4065, 5938, 6063, 6055, 5952, 4551, 4552, 4553, 4554
4066, 5952, 6055, 6054, 6004, 4554, 4553, 4562, 4563
4067, 6004, 6054, 6058, 6008, 4563, 4562, 4572, 4573
4068, 5985, 6046, 6064, 5984, 6004, 6048, 6065, 6003
4069, 6046, 6050, 6066, 6064, 6048, 6051, 6067, 6065
4070, 5984, 6064, 6068, 5987, 6003, 6065, 6069, 6006
4071, 6064, 6066, 6070, 6068, 6065, 6067, 6071, 6069
4072, 6066, 6072, 6073, 6070, 6067, 6056, 6057, 6071
4073, 5987, 6068, 6074, 5988, 6006, 6069, 6075, 6008
4074, 6068, 6070, 6076, 6074, 6069, 6071, 6077, 6075
4075, 6070, 6073, 6078, 6076, 6071, 6057, 6058, 6077
4076, 6003, 6065, 6069, 6006, 6004, 6048, 6075, 6008
4077, 6067, 6056, 6057, 6071, 6051, 6054, 6058, 6077
4078, 6065, 6067, 6071, 6069, 6048, 6051, 6077, 6075
4079, 6048, 6051, 6077, 6075, 6004, 6054, 6058, 6008
4080, 6054, 6059, 6062, 6058, 4562, 4566, 4575, 4572
4081, 6008, 6058, 6079, 6041, 4573, 4572, 5026, 5025
4082, 6058, 6062, 6080, 6079, 4572, 4575, 5032, 5026
4083, 5173, 5172, 5494, 5495, 5886, 5885, 6081, 6082
4084, 5495, 5494, 5496, 5497, 6082, 6081, 6083, 6084
4085, 5893, 5886, 6082, 6085, 5895, 5894, 6086, 6087
4086, 5886, 5885, 6081, 6082, 5894, 5896, 6088, 6086
4087, 6082, 6081, 6083, 6084, 6086, 6088, 6089, 6090
4088, 6084, 6083, 6091, 6092, 6090, 6089, 6093, 6094
4089, 5901, 5895, 6087, 6095, 4592, 4597, 4598, 4593
4090, 5895, 5894, 6086, 6087, 4597, 4601, 4602, 4598
4091, 5894, 5896, 6088, 6086, 4601, 4621, 4624, 4602
4092, 6087, 6086, 6090, 6096, 4598, 4602, 4609, 4607
4093, 6086, 6088, 6089, 6090, 4602, 4624, 4636, 4609
4094, 6096, 6090, 6094, 6097, 4607, 4609, 4615, 4611
4095, 6090, 6089, 6093, 6094, 4609, 4636, 4644, 4615
4096, 6094, 6093, 6098, 6099, 4615, 4644, 4669, 4658
4097, 5172, 5204, 5519, 5494, 5885, 5912, 6100, 6081
4098, 5204, 5205, 5520, 5519, 5912, 5913, 6101, 6100
4099, 5494, 5519, 5521, 5496, 6081, 6100, 6102, 6083
4100, 5519, 5520, 5522, 5521, 6100, 6101, 6103, 6102
4101, 5885, 5912, 6100, 6081, 5896, 5916, 6104, 6088
4102, 5912, 5913, 6101, 6100, 5916, 5917, 6105, 6104
4103, 6081, 6100, 6102, 6083, 6088, 6104, 6106, 6089
4104, 6100, 6101, 6103, 6102, 6104, 6105, 6107, 6106
4105, 5205, 4705, 4706, 5520, 5913, 4708, 4707, 6101
4106, 5520, 4706, 4712, 5522, 6101, 4707, 4713, 6103
4107, 5913, 4708, 4707, 6101, 5917, 4720, 4719, 6105
4108, 6101, 4707, 4713, 6103, 6105, 4719, 4723, 6107
4109, 5496, 5521, 5529, 5530, 6083, 6102, 6108, 6091
4110, 5521, 5522, 5531, 5529, 6102, 6103, 6109, 6108
4111, 5530, 5529, 5532, 5533, 6091, 6108, 6110, 6111
4112, 5529, 5531, 5534, 5532, 6108, 6109, 6112, 6110
4113, 6083, 6102, 6108, 6091, 6089, 6106, 6113, 6093
4114, 6102, 6103, 6109, 6108, 6106, 6107, 6114, 6113
4115, 6091, 6108, 6110, 6111, 6093, 6113, 6115, 6098
4116, 6108, 6109, 6112, 6110, 6113, 6114, 6116, 6115
4117, 5522, 4712, 4716, 5531, 6103, 4713, 4717, 6109
4118, 5531, 4716, 4735, 5534, 6109, 4717, 4738, 6112
4119, 6103, 4713, 4717, 6109, 6107, 4723, 4725, 6114
4120, 6109, 4717, 4738, 6112, 6114, 4725, 4747, 6116
4121, 5896, 5916, 6104, 6088, 4621, 4622, 4623, 4624
4122, 5916, 5917, 6105, 6104, 4622, 4628, 4629, 4623
4123, 6088, 6104, 6106, 6089, 4624, 4623, 4635, 4636
4124, 6104, 6105, 6107, 6106, 4623, 4629, 4639, 4635
4125, 5917, 4720, 4719, 6105, 4628, 4632, 4633, 4629
4126, 6105, 4719, 4723, 6107, 4629, 4633, 4641, 4639
4127, 6089, 6106, 6113, 6093, 4636, 4635, 4643, 4644
4128, 6106, 6107, 6114, 6113, 4635, 4639, 4646, 4643
4129, 6093, 6113, 6115, 6098, 4644, 4643, 4670, 4669
4130, 6113, 6114, 6116, 6115, 4643, 4646, 4676, 4670
4131, 6107, 4723, 4725, 6114, 4639, 4641, 4648, 4646
4132, 6114, 4725, 4747, 6116, 4646, 4648, 4680, 4676
4133, 5532, 5534, 5545, 5546, 6110, 6112, 6117, 6118
4134, 6110, 6112, 6117, 6118, 6115, 6116, 6119, 6120
4135, 5534, 4735, 4736, 5545, 6112, 4738, 4737, 6117
4136, 6112, 4738, 4737, 6117, 6116, 4747, 4746, 6119
4137, 6117, 4737, 4743, 6121, 6119, 4746, 4750, 6122
4138, 6098, 6115, 6120, 6123, 4669, 4670, 4671, 4672
4139, 6115, 6116, 6119, 6120, 4670, 4676, 4677, 4671
4140, 6120, 6119, 6122, 6124, 4671, 4677, 4687, 4683
4141, 6116, 4747, 4746, 6119, 4676, 4680, 4681, 4677
4142, 6119, 4746, 4750, 6122, 4677, 4681, 4689, 4687
4143, 4922, 4923, 5567, 4958, 4925, 4924, 6125, 4957
4144, 4923, 4929, 5568, 5567, 4924, 4930, 6126, 6125
4145, 4958, 5567, 5569, 4962, 4957, 6125, 6127, 4961
4146, 5567, 5568, 5570, 5569, 6125, 6126, 6128, 6127
4147, 4925, 4924, 6125, 4957, 4934, 4933, 6129, 4964
4148, 4924, 4930, 6126, 6125, 4933, 4937, 6130, 6129
4149, 4957, 6125, 6127, 4961, 4964, 6129, 6131, 4966
4150, 6125, 6126, 6128, 6127, 6129, 6130, 6132, 6131
4151, 4929, 4909, 5574, 5568, 4930, 4908, 6133, 6126
4152, 4909, 4911, 5575, 5574, 4908, 4910, 6134, 6133
4153, 5568, 5574, 5576, 5570, 6126, 6133, 6135, 6128
4154, 4930, 4908, 6133, 6126, 4937, 4912, 6136, 6130
4155, 4908, 4910, 6134, 6133, 4912, 4913, 6137, 6136
4156, 6126, 6133, 6135, 6128, 6130, 6136, 6138, 6132
4157, 6133, 6134, 6139, 6135, 6136, 6137, 6140, 6138
4158, 4934, 4933, 6129, 4964, 4940, 4939, 4980, 4968
4159, 4933, 4937, 6130, 6129, 4939, 4942, 4982, 4980
4160, 4964, 6129, 6131, 4966, 4968, 4980, 4986, 4970
4161, 6129, 6130, 6132, 6131, 4980, 4982, 4988, 4986
4162, 4937, 4912, 6136, 6130, 4942, 4914, 4984, 4982
4163, 4912, 4913, 6137, 6136, 4914, 4915, 5057, 4984
4164, 6130, 6136, 6138, 6132, 4982, 4984, 4990, 4988
4165, 6136, 6137, 6140, 6138, 4984, 5057, 5069, 4990
4166, 4885, 5333, 5727, 4886, 4884, 5956, 6141, 4883
4167, 6142, 6031, 5333, 6143, 6144, 6012, 6009, 6145
4168, 6146, 6142, 6143, 6147, 6148, 6144, 6145, 6149
4169, 6150, 6146, 6147, 5727, 6151, 6148, 6149, 6152
4170, 6153, 6033, 6031, 6142, 6154, 6021, 6012, 6144
4171, 6155, 6153, 6142, 6146, 6156, 6154, 6144, 6148
4172, 6157, 6155, 6146, 6150, 6158, 6156, 6148, 6151
4173, 6159, 5956, 6033, 6153, 6160, 6027, 6021, 6154
4174, 6161, 6159, 6153, 6155, 6162, 6160, 6154, 6156
4175, 6141, 6161, 6155, 6157, 6163, 6162, 6156, 6158
4176, 6159, 5956, 5333, 6143, 6153, 6033, 6031, 6142
4177, 6141, 6161, 6147, 5727, 6157, 6155, 6146, 6150
4178, 6161, 6159, 6143, 6147, 6155, 6153, 6142, 6146
4179, 6141, 5956, 5333, 5727, 6161, 6159, 6143, 6147
4180, 5721, 6143, 5333, 5330, 5722, 6145, 6009, 5394
4181, 5723, 6147, 6143, 5721, 5724, 6149, 6145, 5722
4182, 5708, 5727, 5333, 5330, 5723, 6147, 6143, 5721
4183, 5708, 5727, 6147, 5723, 5725, 6152, 6149, 5724
4184, 6159, 6164, 5959, 5956, 6160, 6165, 6035, 6027
4185, 6161, 6166, 6164, 6159, 6162, 6167, 6165, 6160
4186, 6141, 6168, 6166, 6161, 6163, 6169, 6167, 6162
4187, 6141, 6168, 5959, 5956, 6161, 6166, 6164, 6159
4188, 6166, 6168, 5959, 6164, 6167, 6169, 6035, 6165
4189, 4886, 5727, 5728, 4890, 4883, 6141, 6170, 4889
4190, 4884, 5956, 6141, 4883, 4897, 5959, 6168, 4896
4191, 4883, 6141, 6170, 4889, 4896, 6168, 6171, 4899
4192, 4890, 5728, 5758, 4893, 4889, 6170, 6172, 4892
4193, 6173, 6174, 5728, 6175, 6176, 6177, 6178, 6179
4194, 6180, 6173, 6175, 6181, 6182, 6176, 6179, 6183
4195, 6184, 6180, 6181, 5758, 6185, 6182, 6183, 6186
4196, 6187, 6188, 6174, 6173, 6189, 6190, 6177, 6176
4197, 6191, 6187, 6173, 6180, 6192, 6189, 6176, 6182
4198, 6193, 6191, 6180, 6184, 6194, 6192, 6182, 6185
4199, 6195, 6170, 6188, 6187, 6196, 6197, 6190, 6189
4200, 6198, 6195, 6187, 6191, 6199, 6196, 6189, 6192
4201, 6172, 6198, 6191, 6193, 6200, 6199, 6192, 6194
4202, 6195, 6170, 5728, 6175, 6187, 6188, 6174, 6173
4203, 6172, 6198, 6181, 5758, 6193, 6191, 6180, 6184
4204, 6198, 6195, 6175, 6181, 6191, 6187, 6173, 6180
4205, 6172, 6170, 5728, 5758, 6198, 6195, 6175, 6181
4206, 6174, 6150, 5727, 5728, 6177, 6151, 6152, 6178
4207, 6188, 6157, 6150, 6174, 6190, 6158, 6151, 6177
4208, 6170, 6141, 5727, 5728, 6188, 6157, 6150, 6174
4209, 6170, 6141, 6157, 6188, 6197, 6163, 6158, 6190
4210, 5746, 6175, 5728, 5726, 5747, 6179, 6178, 5748
4211, 5749, 6181, 6175, 5746, 5750, 6183, 6179, 5747
4212, 5729, 5758, 5728, 5726, 5749, 6181, 6175, 5746
4213, 5729, 5758, 6181, 5749, 5751, 6186, 6183, 5750
4214, 6201, 6184, 5758, 5759, 6202, 6185, 6186, 6203
4215, 6204, 6193, 6184, 6201, 6205, 6194, 6185, 6202
4216, 6206, 6172, 6193, 6204, 6207, 6200, 6194, 6205
4217, 6206, 6172, 5758, 5759, 6204, 6193, 6184, 6201
4218, 6206, 6204, 6201, 5759, 6207, 6205, 6202, 6203
4219, 6195, 6208, 6171, 6170, 6196, 6209, 6210, 6197
4220, 6198, 6211, 6208, 6195, 6199, 6212, 6209, 6196
4221, 6172, 6213, 6211, 6198, 6200, 6214, 6212, 6199
4222, 6172, 6213, 6171, 6170, 6198, 6211, 6208, 6195
4223, 6211, 6213, 6171, 6208, 6212, 6214, 6210, 6209
4224, 4893, 5758, 5759, 4911, 4892, 6172, 6206, 4910
4225, 4889, 6170, 6172, 4892, 4899, 6171, 6213, 4901
4226, 4892, 6172, 6206, 4910, 4901, 6213, 6215, 4913
4227, 4897, 5959, 6168, 4896, 4904, 4999, 5000, 4903
4228, 5959, 6035, 6169, 6168, 4999, 5003, 5004, 5000
4229, 4896, 6168, 6171, 4899, 4903, 5000, 5010, 4906
4230, 6168, 6169, 6210, 6171, 5000, 5004, 5012, 5010
4231, 6035, 6040, 6216, 6169, 5003, 5007, 5008, 5004
4232, 6027, 6026, 6217, 6160, 6035, 6036, 6218, 6165
4233, 6026, 6029, 6219, 6217, 6036, 6038, 6220, 6218
4234, 6029, 5995, 6221, 6219, 6038, 6040, 6222, 6220
4235, 6160, 6217, 6223, 6162, 6165, 6218, 6224, 6167
4236, 6217, 6219, 6225, 6223, 6218, 6220, 6226, 6224
4237, 6219, 6221, 6227, 6225, 6220, 6222, 6228, 6226
4238, 6162, 6223, 6229, 6163, 6167, 6224, 6230, 6169
4239, 6223, 6225, 6231, 6229, 6224, 6226, 6232, 6230
4240, 6225, 6227, 6233, 6231, 6226, 6228, 6216, 6232
4241, 6165, 6218, 6224, 6167, 6035, 6036, 6230, 6169
4242, 6220, 6222, 6228, 6226, 6038, 6040, 6216, 6232
4243, 6218, 6220, 6226, 6224, 6036, 6038, 6232, 6230
4244, 6036, 6038, 6232, 6230, 6035, 6040, 6216, 6169
4245, 6040, 6041, 6234, 6216, 5007, 5025, 5028, 5008
4246, 6169, 6216, 6235, 6210, 5004, 5008, 5014, 5012
4247, 6216, 6234, 6236, 6235, 5008, 5028, 5040, 5014
4248, 4899, 6171, 6213, 4901, 4906, 5010, 5016, 4907
4249, 6171, 6210, 6214, 6213, 5010, 5012, 5018, 5016
4250, 4901, 6213, 6215, 4913, 4907, 5016, 5055, 4915
4251, 6213, 6214, 6237, 6215, 5016, 5018, 5061, 5055
4252, 6210, 6235, 6238, 6214, 5012, 5014, 5020, 5018
4253, 6197, 6239, 6240, 6196, 6210, 6241, 6242, 6209
4254, 6239, 6243, 6244, 6240, 6241, 6245, 6246, 6242
4255, 6243, 6247, 6248, 6244, 6245, 6235, 6249, 6246
4256, 6196, 6240, 6250, 6199, 6209, 6242, 6251, 6212
4257, 6240, 6244, 6252, 6250, 6242, 6246, 6253, 6251
4258, 6244, 6248, 6254, 6252, 6246, 6249, 6255, 6253
4259, 6199, 6250, 6256, 6200, 6212, 6251, 6257, 6214
4260, 6250, 6252, 6258, 6256, 6251, 6253, 6259, 6257
4261, 6252, 6254, 6260, 6258, 6253, 6255, 6238, 6259
4262, 6209, 6242, 6251, 6212, 6210, 6241, 6257, 6214
4263, 6246, 6249, 6255, 6253, 6245, 6235, 6238, 6259
4264, 6242, 6246, 6253, 6251, 6241, 6245, 6259, 6257
4265, 6241, 6245, 6259, 6257, 6210, 6235, 6238, 6214
4266, 6197, 6163, 6229, 6239, 6210, 6169, 6230, 6241
4267, 6239, 6229, 6231, 6243, 6241, 6230, 6232, 6245
4268, 6241, 6230, 6232, 6245, 6210, 6169, 6216, 6235
4269, 6243, 6231, 6233, 6247, 6245, 6232, 6216, 6235
4270, 6207, 6200, 6256, 6261, 6237, 6214, 6257, 6262
4271, 6261, 6256, 6258, 6263, 6262, 6257, 6259, 6264
4272, 6263, 6258, 6260, 6265, 6264, 6259, 6238, 6266
4273, 6262, 6257, 6259, 6264, 6237, 6214, 6238, 6266
4274, 6207, 6261, 6263, 6265, 6237, 6262, 6264, 6266
4275, 6235, 6236, 6267, 6238, 5014, 5040, 5048, 5020
4276, 6214, 6238, 6266, 6237, 5018, 5020, 5065, 5061
4277, 6238, 6267, 6268, 6266, 5020, 5048, 5081, 5065
4278, 6079, 6269, 6270, 6271, 6080, 6272, 6273, 6274
4279, 6041, 6079, 6271, 6234, 5025, 5026, 5027, 5028
4280, 5996, 6275, 6276, 6277, 6041, 6278, 6279, 6280
4281, 6275, 6281, 6282, 6276, 6278, 6283, 6284, 6279
4282, 6281, 6285, 6286, 6282, 6283, 6079, 6269, 6284
4283, 6277, 6276, 6287, 6288, 6280, 6279, 6289, 6290
4284, 6276, 6282, 6291, 6287, 6279, 6284, 6292, 6289
4285, 6288, 6287, 6293, 6294, 6290, 6289, 6295, 6234
4286, 6287, 6291, 6296, 6293, 6289, 6292, 6297, 6295
4287, 6280, 6279, 6289, 6290, 6041, 6278, 6295, 6234
4288, 6284, 6269, 6270, 6292, 6283, 6079, 6271, 6297
4289, 6279, 6284, 6292, 6289, 6278, 6283, 6297, 6295
4290, 6278, 6283, 6297, 6295, 6041, 6079, 6271, 6234
4291, 5995, 5996, 6277, 6221, 6040, 6041, 6280, 6222
4292, 6221, 6277, 6288, 6227, 6222, 6280, 6290, 6228
4293, 6222, 6280, 6290, 6228, 6040, 6041, 6234, 6216
4294, 6227, 6288, 6294, 6233, 6228, 6290, 6234, 6216
4295, 5996, 5988, 6074, 6275, 6041, 6008, 6075, 6278
4296, 6275, 6074, 6076, 6281, 6278, 6075, 6077, 6283
4297, 6278, 6075, 6077, 6283, 6041, 6008, 6058, 6079
4298, 6281, 6076, 6078, 6285, 6283, 6077, 6058, 6079
4299, 6079, 6080, 6274, 6271, 5026, 5032, 5033, 5027
4300, 6234, 6271, 6298, 6236, 5028, 5027, 5039, 5040
4301, 6236, 6298, 6299, 6267, 5040, 5039, 5047, 5048
4302, 6300, 6301, 6302, 6303, 6236, 6304, 6305, 6306
4303, 6301, 6307, 6308, 6302, 6304, 6309, 6310, 6305
4304, 6303, 6302, 6311, 6312, 6306, 6305, 6313, 6314
4305, 6306, 6305, 6313, 6314, 6236, 6304, 6315, 6267
4306, 6304, 6309, 6316, 6315, 6236, 6298, 6299, 6267
4307, 6247, 6300, 6303, 6248, 6235, 6236, 6306, 6249
4308, 6248, 6303, 6312, 6254, 6249, 6306, 6314, 6255
4309, 6249, 6306, 6314, 6255, 6235, 6236, 6267, 6238
4310, 6254, 6312, 6317, 6260, 6255, 6314, 6267, 6238
4311, 6300, 6294, 6293, 6301, 6236, 6234, 6295, 6304
4312, 6301, 6293, 6296, 6307, 6304, 6295, 6297, 6309
4313, 6304, 6295, 6297, 6309, 6236, 6234, 6271, 6298
4314, 4911, 5759, 5840, 5575, 4910, 6206, 6318, 6134
4315, 4910, 6206, 6318, 6134, 4913, 6215, 6319, 6137
4316, 6206, 6207, 6320, 6318, 6215, 6237, 6321, 6319
4317, 6322, 6202, 6203, 6323, 6324, 6185, 6186, 6325
4318, 6326, 6322, 6323, 6327, 6328, 6324, 6325, 6329
4319, 6330, 6205, 6202, 6322, 6331, 6194, 6185, 6324
4320, 6332, 6330, 6322, 6326, 6333, 6331, 6324, 6328
4321, 6261, 6207, 6205, 6330, 6256, 6200, 6194, 6331
4322, 6263, 6261, 6330, 6332, 6258, 6256, 6331, 6333
4323, 6265, 6263, 6332, 6334, 6260, 6258, 6333, 6335
4324, 6261, 6207, 6203, 6323, 6330, 6205, 6202, 6322
4325, 6263, 6261, 6323, 6327, 6332, 6330, 6322, 6326
4326, 5849, 6323, 6203, 5757, 5850, 6325, 6186, 5751
4327, 4913, 6215, 6319, 6137, 4915, 5055, 5056, 5057
4328, 6215, 6237, 6321, 6319, 5055, 5061, 5062, 5056
4329, 6137, 6319, 6336, 6140, 5057, 5056, 5068, 5069
4330, 6237, 6266, 6337, 6321, 5061, 5065, 5066, 5062
4331, 5276, 5410, 6338, 5277, 5275, 5411, 6339, 5274
4332, 5410, 5414, 6340, 6338, 5411, 5415, 6341, 6339
4333, 5277, 6338, 6342, 5281, 5274, 6339, 6343, 5280
4334, 6338, 6340, 6344, 6342, 6339, 6341, 6345, 6343
4335, 5275, 5411, 6339, 5274, 5288, 5421, 6346, 5287
4336, 5411, 5415, 6341, 6339, 5421, 5423, 6347, 6346
4337, 5274, 6339, 6343, 5280, 5287, 6346, 6348, 5290
4338, 6339, 6341, 6345, 6343, 6346, 6347, 6349, 6348
4339, 5414, 5418, 6350, 6340, 5415, 5419, 6351, 6341
4340, 5418, 5439, 6352, 6350, 5419, 5442, 6353, 6351
4341, 6340, 6350, 6354, 6344, 6341, 6351, 6355, 6345
4342, 6350, 6352, 6356, 6354, 6351, 6353, 6357, 6355
4343, 5415, 5419, 6351, 6341, 5423, 5425, 6358, 6347
4344, 5419, 5442, 6353, 6351, 5425, 5451, 6359, 6358
4345, 6341, 6351, 6355, 6345, 6347, 6358, 6360, 6349
4346, 6351, 6353, 6357, 6355, 6358, 6359, 6361, 6360
4347, 5281, 6342, 6362, 5284, 5280, 6343, 6363, 5283
4348, 6342, 6344, 6364, 6362, 6343, 6345, 6365, 6363
4349, 5284, 6362, 6366, 5594, 5283, 6363, 6367, 5593
4350, 6362, 6364, 6368, 6366, 6363, 6365, 6369, 6367
4351, 5280, 6343, 6363, 5283, 5290, 6348, 6370, 5292
4352, 6343, 6345, 6365, 6363, 6348, 6349, 6371, 6370
4353, 5283, 6363, 6367, 5593, 5292, 6370, 6372, 5606
4354, 6363, 6365, 6369, 6367, 6370, 6371, 6373, 6372
4355, 6344, 6354, 6374, 6364, 6345, 6355, 6375, 6365
4356, 6354, 6356, 6376, 6374, 6355, 6357, 6377, 6375
4357, 6364, 6374, 6378, 6368, 6365, 6375, 6379, 6369
4358, 6374, 6376, 6380, 6378, 6375, 6377, 6381, 6379
4359, 6345, 6355, 6375, 6365, 6349, 6360, 6382, 6371
4360, 6355, 6357, 6377, 6375, 6360, 6361, 6383, 6382
4361, 6365, 6375, 6379, 6369, 6371, 6382, 6384, 6373
4362, 6375, 6377, 6381, 6379, 6382, 6383, 6385, 6384
4363, 5288, 5421, 6346, 5287, 5295, 5427, 6386, 5294
4364, 5421, 5423, 6347, 6346, 5427, 5429, 6387, 6386
4365, 5287, 6346, 6348, 5290, 5294, 6386, 6388, 5297
4366, 6346, 6347, 6349, 6348, 6386, 6387, 6389, 6388
4367, 5295, 5427, 6386, 5294, 5340, 5463, 6390, 5341
4368, 5427, 5429, 6387, 6386, 5463, 5469, 6391, 6390
4369, 5294, 6386, 6388, 5297, 5341, 6390, 6392, 5345
4370, 6386, 6387, 6389, 6388, 6390, 6391, 6393, 6392
4371, 5423, 5425, 6358, 6347, 5429, 5431, 6394, 6387
4372, 6347, 6358, 6360, 6349, 6387, 6394, 6395, 6389
4373, 6358, 6359, 6361, 6360, 6394, 6396, 6397, 6395
4374, 5290, 6348, 6370, 5292, 5297, 6388, 6398, 5298
4375, 6348, 6349, 6371, 6370, 6388, 6389, 6399, 6398
4376, 5292, 6370, 6372, 5606, 5298, 6398, 6400, 5613
4377, 6370, 6371, 6373, 6372, 6398, 6399, 6401, 6400
4378, 5297, 6388, 6398, 5298, 5345, 6392, 6402, 5348
4379, 6388, 6389, 6399, 6398, 6392, 6393, 6403, 6402
4380, 5298, 6398, 6400, 5613, 5348, 6402, 6404, 5366
4381, 6398, 6399, 6401, 6400, 6402, 6403, 6405, 6404
4382, 6349, 6360, 6382, 6371, 6389, 6395, 6406, 6399
4383, 6360, 6361, 6383, 6382, 6395, 6397, 6407, 6406
4384, 6371, 6382, 6384, 6373, 6399, 6406, 6408, 6401
4385, 6382, 6383, 6385, 6384, 6406, 6407, 6409, 6408
4386, 6399, 6406, 6408, 6401, 6403, 6410, 6411, 6405
4387, 5439, 5440, 6412, 6352, 5442, 5441, 6413, 6353
4388, 5440, 5447, 6414, 6412, 5441, 5448, 6415, 6413
4389, 6352, 6412, 6416, 6356, 6353, 6413, 6417, 6357
4390, 6412, 6414, 6418, 6416, 6413, 6415, 6419, 6417
4391, 5442, 5441, 6413, 6353, 5451, 6420, 6421, 6359
4392, 6353, 6413, 6417, 6357, 6359, 6421, 6422, 6361
4393, 6356, 6416, 6423, 6376, 6357, 6417, 6424, 6377
4394, 6416, 6418, 6425, 6423, 6417, 6419, 6426, 6424
4395, 6376, 6423, 6427, 6380, 6377, 6424, 6428, 6381
4396, 6423, 6425, 6429, 6427, 6424, 6426, 6430, 6428
4397, 6357, 6417, 6424, 6377, 6361, 6422, 6431, 6383
4398, 6377, 6424, 6428, 6381, 6383, 6431, 6432, 6385
4399, 5340, 5463, 6390, 5341, 5339, 5464, 6433, 5338
4400, 5341, 6390, 6392, 5345, 5338, 6433, 6434, 5344
4401, 5339, 5464, 6433, 5338, 5352, 5467, 6435, 5351
4402, 5338, 6433, 6434, 5344, 5351, 6435, 6436, 5354
4403, 5345, 6392, 6402, 5348, 5344, 6434, 6437, 5347
4404, 5348, 6402, 6404, 5366, 5347, 6437, 6438, 5365
4405, 6402, 6403, 6405, 6404, 6437, 6439, 6440, 6438
4406, 5344, 6434, 6437, 5347, 5354, 6436, 6441, 5356
4407, 5347, 6437, 6438, 5365, 5356, 6441, 6442, 5368
4408, 5354, 6436, 6441, 5356, 5361, 6443, 6444, 5362
4409, 5356, 6441, 6442, 5368, 5362, 6444, 6445, 5370
4410, 5361, 6443, 6444, 5362, 5971, 6446, 6447, 5974
4411, 5362, 6444, 6445, 5370, 5974, 6447, 6448, 5992
4412, 5376, 5377, 5641, 5642, 5379, 5378, 6449, 5710
4413, 5377, 5383, 5644, 5641, 5378, 5384, 6450, 6449
4414, 5642, 5641, 5647, 5648, 5710, 6449, 6451, 5712
4415, 5641, 5644, 5650, 5647, 6449, 6450, 6452, 6451
4416, 5379, 5378, 6449, 5710, 5388, 5387, 6453, 5716
4417, 5378, 5384, 6450, 6449, 5387, 5391, 6454, 6453
4418, 5710, 6449, 6451, 5712, 5716, 6453, 6455, 5718
4419, 6449, 6450, 6452, 6451, 6453, 6454, 6456, 6455
4420, 5383, 5364, 5617, 5644, 5384, 5363, 6457, 6450
4421, 5364, 5366, 5618, 5617, 5363, 5365, 6458, 6457
4422, 5644, 5617, 5619, 5650, 6450, 6457, 6459, 6452
4423, 5617, 5618, 5620, 5619, 6457, 6458, 6460, 6459
4424, 5384, 5363, 6457, 6450, 5391, 5367, 6461, 6454
4425, 5363, 5365, 6458, 6457, 5367, 5368, 6462, 6461
4426, 6450, 6457, 6459, 6452, 6454, 6461, 6463, 6456
4427, 6457, 6458, 6460, 6459, 6461, 6462, 6464, 6463
4428, 5648, 5647, 5652, 5653, 5712, 6451, 6465, 5714
4429, 5647, 5650, 5655, 5652, 6451, 6452, 6466, 6465
4430, 5653, 5652, 5676, 5675, 5714, 6465, 6467, 5733
4431, 5652, 5655, 5680, 5676, 6465, 6466, 6468, 6467
4432, 5712, 6451, 6465, 5714, 5718, 6455, 6469, 5720
4433, 6451, 6452, 6466, 6465, 6455, 6456, 6470, 6469
4434, 5714, 6465, 6467, 5733, 5720, 6469, 6471, 5741
4435, 6465, 6466, 6468, 6467, 6469, 6470, 6472, 6471
4436, 5650, 5619, 5621, 5655, 6452, 6459, 6473, 6466
4437, 5619, 5620, 5622, 5621, 6459, 6460, 6474, 6473
4438, 5655, 5621, 5683, 5680, 6466, 6473, 6475, 6468
4439, 5621, 5622, 5786, 5683, 6473, 6474, 6476, 6475
4440, 6452, 6459, 6473, 6466, 6456, 6463, 6477, 6470
4441, 6459, 6460, 6474, 6473, 6463, 6464, 6478, 6477
4442, 6466, 6473, 6475, 6468, 6470, 6477, 6479, 6472
4443, 6473, 6474, 6476, 6475, 6477, 6478, 6480, 6479
4444, 5388, 5387, 6453, 5716, 5394, 5393, 6481, 5722
4445, 5387, 5391, 6454, 6453, 5393, 5396, 6482, 6481
4446, 5716, 6453, 6455, 5718, 5722, 6481, 6483, 5724
4447, 6453, 6454, 6456, 6455, 6481, 6482, 6484, 6483
4448, 5394, 5393, 6481, 5722, 6009, 6010, 6485, 6145
4449, 5393, 5396, 6482, 6481, 6010, 6016, 6486, 6485
4450, 5722, 6481, 6483, 5724, 6145, 6485, 6487, 6149
4451, 6481, 6482, 6484, 6483, 6485, 6486, 6488, 6487
4452, 5391, 5367, 6461, 6454, 5396, 5369, 6489, 6482
4453, 5367, 5368, 6462, 6461, 5369, 5370, 6490, 6489
4454, 6454, 6461, 6463, 6456, 6482, 6489, 6491, 6484
4455, 6461, 6462, 6464, 6463, 6489, 6490, 6492, 6491
4456, 5396, 5369, 6489, 6482, 6016, 5990, 6493, 6486
4457, 5369, 5370, 6490, 6489, 5990, 5992, 6494, 6493
4458, 6482, 6489, 6491, 6484, 6486, 6493, 6495, 6488
4459, 6489, 6490, 6492, 6491, 6493, 6494, 6496, 6495
4460, 5718, 6455, 6469, 5720, 5724, 6483, 6497, 5725
4461, 6455, 6456, 6470, 6469, 6483, 6484, 6498, 6497
4462, 5720, 6469, 6471, 5741, 5725, 6497, 6499, 5748
4463, 6469, 6470, 6472, 6471, 6497, 6498, 6500, 6499
4464, 5724, 6483, 6497, 5725, 6149, 6487, 6501, 6152
4465, 6483, 6484, 6498, 6497, 6487, 6488, 6502, 6501
4466, 5725, 6497, 6499, 5748, 6152, 6501, 6503, 6178
4467, 6497, 6498, 6500, 6499, 6501, 6502, 6504, 6503
4468, 6456, 6463, 6477, 6470, 6484, 6491, 6505, 6498
4469, 6463, 6464, 6478, 6477, 6491, 6492, 6506, 6505
4470, 6470, 6477, 6479, 6472, 6498, 6505, 6507, 6500
4471, 6477, 6478, 6480, 6479, 6505, 6506, 6508, 6507
4472, 6484, 6491, 6505, 6498, 6488, 6495, 6509, 6502
4473, 6491, 6492, 6506, 6505, 6495, 6496, 6510, 6509
4474, 6498, 6505, 6507, 6500, 6502, 6509, 6511, 6504
4475, 6505, 6506, 6508, 6507, 6509, 6510, 6512, 6511
4476, 5675, 5676, 5673, 5674, 5733, 6467, 6513, 5732
4477, 5676, 5680, 5679, 5673, 6467, 6468, 6514, 6513
4478, 5674, 5673, 5686, 5687, 5732, 6513, 6515, 5735
4479, 5673, 5679, 5689, 5686, 6513, 6514, 6516, 6515
4480, 5733, 6467, 6513, 5732, 5741, 6471, 6517, 5740
4481, 6467, 6468, 6514, 6513, 6471, 6472, 6518, 6517
4482, 5732, 6513, 6515, 5735, 5740, 6517, 6519, 5743
4483, 6513, 6514, 6516, 6515, 6517, 6518, 6520, 6519
4484, 5680, 5683, 5682, 5679, 6468, 6475, 6521, 6514
4485, 5683, 5786, 5800, 5682, 6475, 6476, 6522, 6521
4486, 5679, 5682, 5691, 5689, 6514, 6521, 6523, 6516
4487, 5682, 5800, 5804, 5691, 6521, 6522, 6524, 6523
4488, 6468, 6475, 6521, 6514, 6472, 6479, 6525, 6518
4489, 6475, 6476, 6522, 6521, 6479, 6480, 6526, 6525
4490, 6514, 6521, 6523, 6516, 6518, 6525, 6527, 6520
4491, 5687, 5686, 5693, 5694, 5735, 6515, 5842, 5737
4492, 5686, 5689, 5696, 5693, 6515, 6516, 5844, 5842
4493, 5735, 6515, 5842, 5737, 5743, 6519, 5846, 5745
4494, 6515, 6516, 5844, 5842, 6519, 6520, 5848, 5846
4495, 5689, 5691, 5697, 5696, 6516, 6523, 6528, 5844
4496, 6516, 6523, 6528, 5844, 6520, 6527, 6529, 5848
4497, 5741, 6471, 6517, 5740, 5748, 6499, 6530, 5747
4498, 6471, 6472, 6518, 6517, 6499, 6500, 6531, 6530
4499, 5740, 6517, 6519, 5743, 5747, 6530, 6532, 5750
4500, 6517, 6518, 6520, 6519, 6530, 6531, 6533, 6532
4501, 5748, 6499, 6530, 5747, 6178, 6503, 6534, 6179
4502, 6499, 6500, 6531, 6530, 6503, 6504, 6535, 6534
4503, 5747, 6530, 6532, 5750, 6179, 6534, 6536, 6183
4504, 6530, 6531, 6533, 6532, 6534, 6535, 6537, 6536
4505, 6472, 6479, 6525, 6518, 6500, 6507, 6538, 6531
4506, 6518, 6525, 6527, 6520, 6531, 6538, 6539, 6533
4507, 6500, 6507, 6538, 6531, 6504, 6511, 6540, 6535
4508, 6531, 6538, 6539, 6533, 6535, 6540, 6541, 6537
4509, 5743, 6519, 5846, 5745, 5750, 6532, 5850, 5751
4510, 6519, 6520, 5848, 5846, 6532, 6533, 6542, 5850
4511, 5750, 6532, 5850, 5751, 6183, 6536, 6325, 6186
4512, 6532, 6533, 6542, 5850, 6536, 6537, 6329, 6325
4513, 5594, 6366, 6543, 5595, 5593, 6367, 6544, 5592
4514, 6366, 6368, 6545, 6543, 6367, 6369, 6546, 6544
4515, 5595, 6543, 6547, 5599, 5592, 6544, 6548, 5598
4516, 6543, 6545, 6549, 6547, 6544, 6546, 6550, 6548
4517, 5593, 6367, 6544, 5592, 5606, 6372, 6551, 5605
4518, 6367, 6369, 6546, 6544, 6372, 6373, 6552, 6551
4519, 5592, 6544, 6548, 5598, 5605, 6551, 6553, 5608
4520, 6544, 6546, 6550, 6548, 6551, 6552, 6554, 6553
4521, 6368, 6378, 6555, 6545, 6369, 6379, 6556, 6546
4522, 6378, 6380, 6557, 6555, 6379, 6381, 6558, 6556
4523, 6545, 6555, 6559, 6549, 6546, 6556, 6560, 6550
4524, 6555, 6557, 6561, 6559, 6556, 6558, 6562, 6560
4525, 6369, 6379, 6556, 6546, 6373, 6384, 6563, 6552
4526, 6379, 6381, 6558, 6556, 6384, 6385, 6564, 6563
4527, 6546, 6556, 6560, 6550, 6552, 6563, 6565, 6554
4528, 6556, 6558, 6562, 6560, 6563, 6564, 6566, 6565
4529, 5599, 6547, 5766, 5602, 5598, 6548, 5765, 5601
4530, 6547, 6549, 5770, 5766, 6548, 6550, 5769, 5765
4531, 5598, 6548, 5765, 5601, 5608, 6553, 5775, 5610
4532, 6548, 6550, 5769, 5765, 6553, 6554, 5777, 5775
4533, 6549, 6559, 5773, 5770, 6550, 6560, 5772, 5769
4534, 6559, 6561, 5813, 5773, 6560, 6562, 5812, 5772
4535, 6550, 6560, 5772, 5769, 6554, 6565, 5779, 5777
4536, 6560, 6562, 5812, 5772, 6565, 6566, 5822, 5779
4537, 5606, 6372, 6551, 5605, 5613, 6400, 6567, 5612
4538, 6372, 6373, 6552, 6551, 6400, 6401, 6568, 6567
4539, 5605, 6551, 6553, 5608, 5612, 6567, 6569, 5615
4540, 6551, 6552, 6554, 6553, 6567, 6568, 6570, 6569
4541, 5613, 6400, 6567, 5612, 5366, 6404, 6571, 5618
4542, 6400, 6401, 6568, 6567, 6404, 6405, 6572, 6571
4543, 5612, 6567, 6569, 5615, 5618, 6571, 6573, 5620
4544, 6567, 6568, 6570, 6569, 6571, 6572, 6574, 6573
4545, 6373, 6384, 6563, 6552, 6401, 6408, 6575, 6568
4546, 6384, 6385, 6564, 6563, 6408, 6409, 6576, 6575
4547, 6552, 6563, 6565, 6554, 6568, 6575, 6577, 6570
4548, 6563, 6564, 6566, 6565, 6575, 6576, 6578, 6577
4549, 6401, 6408, 6575, 6568, 6405, 6411, 6579, 6572
4550, 5608, 6553, 5775, 5610, 5615, 6569, 5781, 5616
4551, 6553, 6554, 5777, 5775, 6569, 6570, 5783, 5781
4552, 5615, 6569, 5781, 5616, 5620, 6573, 5787, 5622
4553, 6569, 6570, 5783, 5781, 6573, 6574, 5789, 5787
4554, 6554, 6565, 5779, 5777, 6570, 6577, 5784, 5783
4555, 6380, 6427, 6580, 6557, 6381, 6428, 6581, 6558
4556, 6427, 6429, 6582, 6580, 6428, 6430, 6583, 6581
4557, 6557, 6580, 6584, 6561, 6558, 6581, 6585, 6562
4558, 6580, 6582, 6586, 6584, 6581, 6583, 6587, 6585
4559, 6381, 6428, 6581, 6558, 6385, 6432, 6588, 6564
4560, 6558, 6581, 6585, 6562, 6564, 6588, 6589, 6566
4561, 6561, 6584, 5814, 5813, 6562, 6585, 5811, 5812
4562, 6584, 6586, 5818, 5814, 6585, 6587, 5817, 5811
4563, 6562, 6585, 5811, 5812, 6566, 6589, 5821, 5822
4564, 5366, 6404, 6571, 5618, 5365, 6438, 6590, 6458
4565, 6404, 6405, 6572, 6571, 6438, 6440, 6591, 6590
4566, 5618, 6571, 6573, 5620, 6458, 6590, 6592, 6460
4567, 5365, 6438, 6590, 6458, 5368, 6442, 6593, 6462
4568, 6458, 6590, 6592, 6460, 6462, 6593, 6594, 6464
4569, 5620, 6573, 5787, 5622, 6460, 6592, 6595, 6474
4570, 5622, 5787, 5785, 5786, 6474, 6595, 6596, 6476
4571, 6460, 6592, 6595, 6474, 6464, 6594, 6597, 6478
4572, 5368, 6442, 6593, 6462, 5370, 6445, 6598, 6490
4573, 6462, 6593, 6594, 6464, 6490, 6598, 6599, 6492
4574, 5370, 6445, 6598, 6490, 5992, 6448, 6600, 6494
4575, 6490, 6598, 6599, 6492, 6494, 6600, 6601, 6496
4576, 5967, 6602, 6446, 5971, 5964, 6603, 6604, 5970
4577, 5965, 6042, 6603, 5964, 5978, 6043, 6605, 5977
4578, 5964, 6603, 6604, 5970, 5977, 6605, 6606, 5980
4579, 5971, 6446, 6447, 5974, 5970, 6604, 6607, 5973
4580, 5974, 6447, 6448, 5992, 5973, 6607, 6608, 5991
4581, 5970, 6604, 6607, 5973, 5980, 6606, 6609, 5982
4582, 5973, 6607, 6608, 5991, 5982, 6609, 6610, 5994
4583, 5978, 6043, 6605, 5977, 5985, 6046, 6064, 5984
4584, 6043, 6611, 6612, 6605, 6046, 6050, 6066, 6064
4585, 5977, 6605, 6606, 5980, 5984, 6064, 6068, 5987
4586, 6605, 6612, 6613, 6606, 6064, 6066, 6070, 6068
4587, 5980, 6606, 6609, 5982, 5987, 6068, 6074, 5988
4588, 6606, 6613, 6614, 6609, 6068, 6070, 6076, 6074
4589, 5982, 6609, 6610, 5994, 5988, 6074, 6275, 5996
4590, 6609, 6614, 6615, 6610, 6074, 6076, 6281, 6275
4591, 6009, 6010, 6485, 6145, 6012, 6011, 6616, 6144
4592, 6010, 6016, 6486, 6485, 6011, 6017, 6617, 6616
4593, 6145, 6485, 6487, 6149, 6144, 6616, 6618, 6148
4594, 6485, 6486, 6488, 6487, 6616, 6617, 6619, 6618
4595, 6012, 6011, 6616, 6144, 6021, 6020, 6620, 6154
4596, 6011, 6017, 6617, 6616, 6020, 6024, 6621, 6620
4597, 6144, 6616, 6618, 6148, 6154, 6620, 6622, 6156
4598, 6616, 6617, 6619, 6618, 6620, 6621, 6623, 6622
4599, 6016, 5990, 6493, 6486, 6017, 5989, 6624, 6617
4600, 5990, 5992, 6494, 6493, 5989, 5991, 6625, 6624
4601, 6486, 6493, 6495, 6488, 6617, 6624, 6626, 6619
4602, 6493, 6494, 6496, 6495, 6624, 6625, 6627, 6626
4603, 6017, 5989, 6624, 6617, 6024, 5993, 6628, 6621
4604, 5989, 5991, 6625, 6624, 5993, 5994, 6629, 6628
4605, 6617, 6624, 6626, 6619, 6621, 6628, 6630, 6623
4606, 6624, 6625, 6627, 6626, 6628, 6629, 6631, 6630
4607, 6149, 6487, 6501, 6152, 6148, 6618, 6632, 6151
4608, 6487, 6488, 6502, 6501, 6618, 6619, 6633, 6632
4609, 6152, 6501, 6503, 6178, 6151, 6632, 6634, 6177
4610, 6501, 6502, 6504, 6503, 6632, 6633, 6635, 6634
4611, 6148, 6618, 6632, 6151, 6156, 6622, 6636, 6158
4612, 6618, 6619, 6633, 6632, 6622, 6623, 6637, 6636
4613, 6151, 6632, 6634, 6177, 6158, 6636, 6638, 6190
4614, 6632, 6633, 6635, 6634, 6636, 6637, 6639, 6638
4615, 6488, 6495, 6509, 6502, 6619, 6626, 6640, 6633
4616, 6495, 6496, 6510, 6509, 6626, 6627, 6641, 6640
4617, 6502, 6509, 6511, 6504, 6633, 6640, 6642, 6635
4618, 6509, 6510, 6512, 6511, 6640, 6641, 6643, 6642
4619, 6619, 6626, 6640, 6633, 6623, 6630, 6644, 6637
4620, 6626, 6627, 6641, 6640, 6630, 6631, 6645, 6644
4621, 6633, 6640, 6642, 6635, 6637, 6644, 6646, 6639
4622, 6640, 6641, 6643, 6642, 6644, 6645, 6647, 6646
4623, 6021, 6020, 6620, 6154, 6027, 6026, 6217, 6160
4624, 6020, 6024, 6621, 6620, 6026, 6029, 6219, 6217
4625, 6154, 6620, 6622, 6156, 6160, 6217, 6223, 6162
4626, 6620, 6621, 6623, 6622, 6217, 6219, 6225, 6223
4627, 6024, 5993, 6628, 6621, 6029, 5995, 6221, 6219
4628, 5993, 5994, 6629, 6628, 5995, 5996, 6277, 6221
4629, 6621, 6628, 6630, 6623, 6219, 6221, 6227, 6225
4630, 6628, 6629, 6631, 6630, 6221, 6277, 6288, 6227
4631, 6156, 6622, 6636, 6158, 6162, 6223, 6229, 6163
4632, 6622, 6623, 6637, 6636, 6223, 6225, 6231, 6229
4633, 6158, 6636, 6638, 6190, 6163, 6229, 6239, 6197
4634, 6636, 6637, 6639, 6638, 6229, 6231, 6243, 6239
4635, 6623, 6630, 6644, 6637, 6225, 6227, 6233, 6231
4636, 6630, 6631, 6645, 6644, 6227, 6288, 6294, 6233
4637, 6637, 6644, 6646, 6639, 6231, 6233, 6247, 6243
4638, 6644, 6645, 6647, 6646, 6233, 6294, 6300, 6247
4639, 6178, 6503, 6534, 6179, 6177, 6634, 6648, 6176
4640, 6503, 6504, 6535, 6534, 6634, 6635, 6649, 6648
4641, 6179, 6534, 6536, 6183, 6176, 6648, 6650, 6182
4642, 6534, 6535, 6537, 6536, 6648, 6649, 6651, 6650
4643, 6177, 6634, 6648, 6176, 6190, 6638, 6652, 6189
4644, 6634, 6635, 6649, 6648, 6638, 6639, 6653, 6652
4645, 6176, 6648, 6650, 6182, 6189, 6652, 6654, 6192
4646, 6648, 6649, 6651, 6650, 6652, 6653, 6655, 6654
4647, 6504, 6511, 6540, 6535, 6635, 6642, 6656, 6649
4648, 6511, 6512, 6657, 6540, 6642, 6643, 6658, 6656
4649, 6535, 6540, 6541, 6537, 6649, 6656, 6659, 6651
4650, 6635, 6642, 6656, 6649, 6639, 6646, 6660, 6653
4651, 6642, 6643, 6658, 6656, 6646, 6647, 6661, 6660
4652, 6649, 6656, 6659, 6651, 6653, 6660, 6662, 6655
4653, 6656, 6658, 6663, 6659, 6660, 6661, 6664, 6662
4654, 6183, 6536, 6325, 6186, 6182, 6650, 6324, 6185
4655, 6536, 6537, 6329, 6325, 6650, 6651, 6328, 6324
4656, 6182, 6650, 6324, 6185, 6192, 6654, 6331, 6194
4657, 6650, 6651, 6328, 6324, 6654, 6655, 6333, 6331
4658, 6651, 6659, 6665, 6328, 6655, 6662, 6335, 6333
4659, 6190, 6638, 6652, 6189, 6197, 6239, 6240, 6196
4660, 6638, 6639, 6653, 6652, 6239, 6243, 6244, 6240
4661, 6189, 6652, 6654, 6192, 6196, 6240, 6250, 6199
4662, 6652, 6653, 6655, 6654, 6240, 6244, 6252, 6250
4663, 6639, 6646, 6660, 6653, 6243, 6247, 6248, 6244
4664, 6646, 6647, 6661, 6660, 6247, 6300, 6303, 6248
4665, 6653, 6660, 6662, 6655, 6244, 6248, 6254, 6252
4666, 6660, 6661, 6664, 6662, 6248, 6303, 6312, 6254
4667, 6192, 6654, 6331, 6194, 6199, 6250, 6256, 6200
4668, 6654, 6655, 6333, 6331, 6250, 6252, 6258, 6256
4669, 6655, 6662, 6335, 6333, 6252, 6254, 6260, 6258
4670, 6662, 6664, 6666, 6335, 6254, 6312, 6317, 6260
4671, 5992, 6448, 6600, 6494, 5991, 6608, 6667, 6625
4672, 6494, 6600, 6601, 6496, 6625, 6667, 6668, 6627
4673, 5991, 6608, 6667, 6625, 5994, 6610, 6669, 6629
4674, 6625, 6667, 6668, 6627, 6629, 6669, 6670, 6631
4675, 6496, 6601, 6671, 6510, 6627, 6668, 6672, 6641
4676, 6627, 6668, 6672, 6641, 6631, 6670, 6673, 6645
4677, 6641, 6672, 6674, 6643, 6645, 6673, 6675, 6647
4678, 5994, 6610, 6669, 6629, 5996, 6275, 6276, 6277
4679, 6610, 6615, 6676, 6669, 6275, 6281, 6282, 6276
4680, 6629, 6669, 6670, 6631, 6277, 6276, 6287, 6288
4681, 6669, 6676, 6677, 6670, 6276, 6282, 6291, 6287
4682, 6631, 6670, 6673, 6645, 6288, 6287, 6293, 6294
4683, 6670, 6677, 6678, 6673, 6287, 6291, 6296, 6293
4684, 6645, 6673, 6675, 6647, 6294, 6293, 6301, 6300
4685, 6647, 6675, 6679, 6661, 6300, 6301, 6302, 6303
4686, 4570, 6680, 6681, 4571, 4523, 4580, 4581, 4550
4687, 5038, 6682, 6683, 5046, 4582, 4583, 5052, 5024
4688, 5459, 6684, 6685, 6686, 6687, 6688, 6689, 6690
4689, 6691, 5832, 6692, 6693, 6694, 6695, 6696, 6697
4690, 3078, 3079, 6698, 6699, 3081, 3080, 6700, 6701
4691, 3079, 3085, 6702, 6698, 3080, 3086, 6703, 6700
4692, 6699, 6698, 6704, 6705, 6701, 6700, 6706, 6707
4693, 6698, 6702, 6708, 6704, 6700, 6703, 6709, 6706
4694, 3081, 3080, 6700, 6701, 3093, 3092, 6710, 6711
4695, 3080, 3086, 6703, 6700, 3092, 3096, 6712, 6710
4696, 6701, 6700, 6706, 6707, 6711, 6710, 6713, 6714
4697, 6700, 6703, 6709, 6706, 6710, 6712, 6715, 6713
4698, 3085, 3089, 6716, 6702, 3086, 3090, 6717, 6703
4699, 3089, 3125, 6718, 6716, 3090, 3128, 6719, 6717
4700, 6702, 6716, 6720, 6708, 6703, 6717, 6721, 6709
4701, 6716, 6718, 6722, 6720, 6717, 6719, 6723, 6721
4702, 3086, 3090, 6717, 6703, 3096, 3098, 6724, 6712
4703, 3090, 3128, 6719, 6717, 3098, 3138, 6725, 6724
4704, 6703, 6717, 6721, 6709, 6712, 6724, 6726, 6715
4705, 6717, 6719, 6723, 6721, 6724, 6725, 6727, 6726
4706, 6705, 6704, 6728, 6729, 6707, 6706, 6730, 6731
4707, 6704, 6708, 6732, 6728, 6706, 6709, 6733, 6730
4708, 6729, 6728, 6734, 6735, 6731, 6730, 6736, 6737
4709, 6728, 6732, 6738, 6734, 6730, 6733, 6739, 6736
4710, 6707, 6706, 6730, 6731, 6714, 6713, 6740, 6741
4711, 6706, 6709, 6733, 6730, 6713, 6715, 6742, 6740
4712, 6731, 6730, 6736, 6737, 6741, 6740, 6743, 6744
4713, 6730, 6733, 6739, 6736, 6740, 6742, 6745, 6743
4714, 6708, 6720, 6746, 6732, 6709, 6721, 6747, 6733
4715, 6720, 6722, 6748, 6746, 6721, 6723, 6749, 6747
4716, 6732, 6746, 6750, 6738, 6733, 6747, 6751, 6739
4717, 6746, 6748, 6752, 6750, 6747, 6749, 6753, 6751
4718, 6709, 6721, 6747, 6733, 6715, 6726, 6754, 6742
4719, 6721, 6723, 6749, 6747, 6726, 6727, 6755, 6754
4720, 6733, 6747, 6751, 6739, 6742, 6754, 6756, 6745
4721, 6747, 6749, 6753, 6751, 6754, 6755, 6757, 6756
4722, 3093, 3092, 6710, 6711, 3101, 3100, 5438, 5433
4723, 3092, 3096, 6712, 6710, 3100, 3103, 5455, 5438
4724, 6711, 6710, 6713, 6714, 5433, 5438, 5437, 5305
4725, 6710, 6712, 6715, 6713, 5438, 5455, 5453, 5437
4726, 3101, 3100, 5438, 5433, 3107, 3106, 5407, 5250
4727, 3100, 3103, 5455, 5438, 3106, 3110, 5443, 5407
4728, 3096, 3098, 6724, 6712, 3103, 3105, 5461, 5455
4729, 3098, 3138, 6725, 6724, 3105, 6758, 6759, 5461
4730, 6712, 6724, 6726, 6715, 5455, 5461, 5459, 5453
4731, 6724, 6725, 6727, 6726, 5461, 6759, 6687, 5459
4732, 6714, 6713, 6740, 6741, 5305, 5437, 6760, 5310
4733, 6713, 6715, 6742, 6740, 5437, 5453, 6761, 6760
4734, 6741, 6740, 6743, 6744, 5310, 6760, 6762, 5625
4735, 6740, 6742, 6745, 6743, 6760, 6761, 6763, 6762
4736, 6764, 5306, 5305, 5432, 6338, 5277, 5276, 5410
4737, 6765, 6764, 5432, 5435, 6340, 6338, 5410, 5414
4738, 6766, 6765, 5435, 5437, 6350, 6340, 5414, 5418
4739, 6767, 5308, 5306, 6764, 6342, 5281, 5277, 6338
4740, 6768, 6767, 6764, 6765, 6344, 6342, 6338, 6340
4741, 6769, 6768, 6765, 6766, 6354, 6344, 6340, 6350
4742, 6770, 5310, 5308, 6767, 6362, 5284, 5281, 6342
4743, 6771, 6770, 6767, 6768, 6364, 6362, 6342, 6344
4744, 6760, 6771, 6768, 6769, 6374, 6364, 6344, 6354
4745, 6770, 5310, 5305, 5432, 6767, 5308, 5306, 6764
4746, 6760, 6771, 5435, 5437, 6769, 6768, 6765, 6766
4747, 6771, 6770, 5432, 5435, 6768, 6767, 6764, 6765
4748, 6760, 5310, 5305, 5437, 6771, 6770, 5432, 5435
4749, 6715, 6726, 6754, 6742, 5453, 5459, 6684, 6761
4750, 6726, 6727, 6755, 6754, 5459, 6687, 6688, 6684
4751, 6742, 6754, 6756, 6745, 6761, 6684, 6691, 6763
4752, 6754, 6755, 6757, 6756, 6684, 6688, 6694, 6691
4753, 6772, 6773, 5453, 5454, 6412, 6352, 5439, 5440
4754, 6774, 6772, 5454, 5457, 6414, 6412, 5440, 5447
4755, 6686, 6774, 5457, 5459, 6775, 6414, 5447, 5460
4756, 6776, 6777, 6773, 6772, 6416, 6356, 6352, 6412
4757, 6778, 6776, 6772, 6774, 6418, 6416, 6412, 6414
4758, 6685, 6778, 6774, 6686, 6779, 6418, 6414, 6775
4759, 6780, 6761, 6777, 6776, 6423, 6376, 6356, 6416
4760, 6781, 6780, 6776, 6778, 6425, 6423, 6416, 6418
4761, 6684, 6781, 6778, 6685, 6782, 6425, 6418, 6779
4762, 6780, 6761, 5453, 5454, 6776, 6777, 6773, 6772
4763, 6684, 6781, 5457, 5459, 6685, 6778, 6774, 6686
4764, 6781, 6780, 5454, 5457, 6778, 6776, 6772, 6774
4765, 6684, 6761, 5453, 5459, 6781, 6780, 5454, 5457
4766, 6773, 6766, 5437, 5453, 6352, 6350, 5418, 5439
4767, 6777, 6769, 6766, 6773, 6356, 6354, 6350, 6352
4768, 6761, 6760, 5437, 5453, 6777, 6769, 6766, 6773
4769, 6761, 6760, 6769, 6777, 6376, 6374, 6354, 6356
4770, 3125, 3126, 6783, 6718, 3128, 3127, 6784, 6719
4771, 3126, 3133, 6785, 6783, 3127, 3134, 6786, 6784
4772, 6718, 6783, 6787, 6722, 6719, 6784, 6788, 6723
4773, 6783, 6785, 6789, 6787, 6784, 6786, 6790, 6788
4774, 3128, 3127, 6784, 6719, 3138, 3137, 6791, 6725
4775, 6719, 6784, 6788, 6723, 6725, 6791, 6792, 6727
4776, 6722, 6787, 6793, 6748, 6723, 6788, 6794, 6749
4777, 6787, 6789, 6795, 6793, 6788, 6790, 6796, 6794
4778, 6748, 6793, 6797, 6752, 6749, 6794, 6798, 6753
4779, 6793, 6795, 6799, 6797, 6794, 6796, 6800, 6798
4780, 6723, 6788, 6794, 6749, 6727, 6792, 6801, 6755
4781, 6788, 6790, 6796, 6794, 6792, 6802, 6803, 6801
4782, 6749, 6794, 6798, 6753, 6755, 6801, 6804, 6757
4783, 6794, 6796, 6800, 6798, 6801, 6803, 6805, 6804
4784, 6789, 6806, 6807, 6795, 6790, 6808, 6809, 6796
4785, 6795, 6807, 6810, 6799, 6796, 6809, 6811, 6800
4786, 6735, 6734, 6812, 6813, 6737, 6736, 6814, 6815
4787, 6734, 6738, 6816, 6812, 6736, 6739, 6817, 6814
4788, 6813, 6812, 6818, 6819, 6815, 6814, 6820, 6821
4789, 6812, 6816, 6822, 6818, 6814, 6817, 6823, 6820
4790, 6737, 6736, 6814, 6815, 6744, 6743, 6824, 6825
4791, 6736, 6739, 6817, 6814, 6743, 6745, 6826, 6824
4792, 6815, 6814, 6820, 6821, 6825, 6824, 6827, 6828
4793, 6814, 6817, 6823, 6820, 6824, 6826, 6829, 6827
4794, 6738, 6750, 6830, 6816, 6739, 6751, 6831, 6817
4795, 6750, 6752, 6832, 6830, 6751, 6753, 6833, 6831
4796, 6816, 6830, 6834, 6822, 6817, 6831, 6835, 6823
4797, 6830, 6832, 6836, 6834, 6831, 6833, 6837, 6835
4798, 6739, 6751, 6831, 6817, 6745, 6756, 6838, 6826
4799, 6751, 6753, 6833, 6831, 6756, 6757, 6839, 6838
4800, 6817, 6831, 6835, 6823, 6826, 6838, 6840, 6829
4801, 6831, 6833, 6837, 6835, 6838, 6839, 6841, 6840
4802, 6819, 6818, 3823, 3822, 6821, 6820, 3820, 3821
4803, 6818, 6822, 3827, 3823, 6820, 6823, 3826, 3820
4804, 6821, 6820, 3820, 3821, 6828, 6827, 3834, 3835
4805, 6820, 6823, 3826, 3820, 6827, 6829, 3837, 3834
4806, 6822, 6834, 3831, 3827, 6823, 6835, 3830, 3826
4807, 6834, 6836, 3880, 3831, 6835, 6837, 3879, 3830
4808, 6823, 6835, 3830, 3826, 6829, 6840, 3839, 3837
4809, 6835, 6837, 3879, 3830, 6840, 6841, 3889, 3839
4810, 6744, 6743, 6824, 6825, 5625, 6762, 5796, 5630
4811, 6743, 6745, 6826, 6824, 6762, 6763, 5825, 5796
4812, 6825, 6824, 6827, 6828, 5630, 5796, 5795, 5790
4813, 6824, 6826, 6829, 6827, 5796, 5825, 5823, 5795
4814, 6842, 5626, 5625, 6843, 6543, 5595, 5594, 6366
4815, 6844, 6842, 6843, 6845, 6545, 6543, 6366, 6368
4816, 6846, 6844, 6845, 6762, 6555, 6545, 6368, 6378
4817, 6847, 5628, 5626, 6842, 6547, 5599, 5595, 6543
4818, 6848, 6847, 6842, 6844, 6549, 6547, 6543, 6545
4819, 6849, 6848, 6844, 6846, 6559, 6549, 6545, 6555
4820, 5792, 5630, 5628, 6847, 5766, 5602, 5599, 6547
4821, 5794, 5792, 6847, 6848, 5770, 5766, 6547, 6549
4822, 5796, 5794, 6848, 6849, 5773, 5770, 6549, 6559
4823, 5792, 5630, 5625, 6843, 6847, 5628, 5626, 6842
4824, 5796, 5794, 6845, 6762, 6849, 6848, 6844, 6846
4825, 5794, 5792, 6843, 6845, 6848, 6847, 6842, 6844
4826, 5796, 5630, 5625, 6762, 5794, 5792, 6843, 6845
4827, 6770, 6843, 5625, 5310, 6362, 6366, 5594, 5284
4828, 6771, 6845, 6843, 6770, 6364, 6368, 6366, 6362
4829, 6760, 6762, 5625, 5310, 6771, 6845, 6843, 6770
4830, 6760, 6762, 6845, 6771, 6374, 6378, 6368, 6364
4831, 6745, 6756, 6838, 6826, 6763, 6691, 5832, 5825
4832, 6756, 6757, 6839, 6838, 6691, 6694, 6695, 5832
4833, 6826, 6838, 6840, 6829, 5825, 5832, 5830, 5823
4834, 6838, 6839, 6841, 6840, 5832, 6695, 6850, 5830
4835, 6851, 6852, 6763, 6853, 6580, 6557, 6380, 6427
4836, 6854, 6851, 6853, 6855, 6582, 6580, 6427, 6429
4837, 6693, 6854, 6855, 6691, 6856, 6582, 6429, 6857
4838, 6858, 6859, 6852, 6851, 6584, 6561, 6557, 6580
4839, 6860, 6858, 6851, 6854, 6586, 6584, 6580, 6582
4840, 6692, 6860, 6854, 6693, 6861, 6586, 6582, 6856
4841, 5826, 5825, 6859, 6858, 5814, 5813, 6561, 6584
4842, 5828, 5826, 6858, 6860, 5818, 5814, 6584, 6586
4843, 5832, 5828, 6860, 6692, 5831, 5818, 6586, 6861
4844, 5826, 5825, 6763, 6853, 6858, 6859, 6852, 6851
4845, 5832, 5828, 6855, 6691, 6692, 6860, 6854, 6693
4846, 5828, 5826, 6853, 6855, 6860, 6858, 6851, 6854
4847, 5832, 5825, 6763, 6691, 5828, 5826, 6853, 6855
4848, 6852, 6846, 6762, 6763, 6557, 6555, 6378, 6380
4849, 6859, 6849, 6846, 6852, 6561, 6559, 6555, 6557
4850, 5825, 5796, 6762, 6763, 6859, 6849, 6846, 6852
4851, 5825, 5796, 6849, 6859, 5813, 5773, 6559, 6561
4852, 6780, 6853, 6763, 6761, 6423, 6427, 6380, 6376
4853, 6781, 6855, 6853, 6780, 6425, 6429, 6427, 6423
4854, 6684, 6691, 6763, 6761, 6781, 6855, 6853, 6780
4855, 6684, 6691, 6855, 6781, 6782, 6857, 6429, 6425
4856, 6828, 6827, 3834, 3835, 5790, 5795, 3841, 3842
4857, 6827, 6829, 3837, 3834, 5795, 5823, 3844, 3841
4858, 5790, 5795, 3841, 3842, 5634, 5760, 3849, 3850
4859, 5795, 5823, 3844, 3841, 5760, 5809, 3852, 3849
4860, 6829, 6840, 3839, 3837, 5823, 5830, 3846, 3844
4861, 6840, 6841, 3889, 3839, 5830, 6850, 6862, 3846
4862, 6752, 6797, 6863, 6832, 6753, 6798, 6864, 6833
4863, 6797, 6799, 6865, 6863, 6798, 6800, 6866, 6864
4864, 6832, 6863, 6867, 6836, 6833, 6864, 6868, 6837
4865, 6863, 6865, 6869, 6867, 6864, 6866, 6870, 6868
4866, 6753, 6798, 6864, 6833, 6757, 6804, 6871, 6839
4867, 6833, 6864, 6868, 6837, 6839, 6871, 6872, 6841
4868, 6799, 6810, 6873, 6865, 6800, 6811, 6874, 6866
4869, 6836, 6867, 3881, 3880, 6837, 6868, 3878, 3879
4870, 6867, 6869, 3885, 3881, 6868, 6870, 3884, 3878
4871, 6837, 6868, 3878, 3879, 6841, 6872, 3888, 3889
4872, 3598, 6875, 6876, 3599, 3597, 6877, 6878, 3596
4873, 6875, 6879, 6880, 6876, 6877, 6881, 6882, 6878
4874, 3599, 6876, 6883, 3603, 3596, 6878, 6884, 3602
4875, 6876, 6880, 6885, 6883, 6878, 6882, 6886, 6884
4876, 3597, 6877, 6878, 3596, 3610, 6887, 6888, 3609
4877, 6877, 6881, 6882, 6878, 6887, 6889, 6890, 6888
4878, 3596, 6878, 6884, 3602, 3609, 6888, 6891, 3612
4879, 6878, 6882, 6886, 6884, 6888, 6890, 6892, 6891
4880, 6879, 6893, 6894, 6880, 6881, 6895, 6896, 6882
4881, 6893, 6735, 6813, 6894, 6895, 6737, 6815, 6896
4882, 6880, 6894, 6897, 6885, 6882, 6896, 6898, 6886
4883, 6894, 6813, 6819, 6897, 6896, 6815, 6821, 6898
4884, 6881, 6895, 6896, 6882, 6889, 6899, 6900, 6890
4885, 6895, 6737, 6815, 6896, 6899, 6744, 6825, 6900
4886, 6882, 6896, 6898, 6886, 6890, 6900, 6901, 6892
4887, 6896, 6815, 6821, 6898, 6900, 6825, 6828, 6901
4888, 3603, 6883, 3763, 3606, 3602, 6884, 3762, 3605
4889, 6883, 6885, 3767, 3763, 6884, 6886, 3766, 3762
4890, 3602, 6884, 3762, 3605, 3612, 6891, 3772, 3614
4891, 6884, 6886, 3766, 3762, 6891, 6892, 3774, 3772
4892, 6885, 6897, 3770, 3767, 6886, 6898, 3769, 3766
4893, 6897, 6819, 3822, 3770, 6898, 6821, 3821, 3769
4894, 6886, 6898, 3769, 3766, 6892, 6901, 3776, 3774
4895, 6898, 6821, 3821, 3769, 6901, 6828, 3835, 3776
4896, 3610, 6887, 6888, 3609, 3617, 6902, 6903, 3616
4897, 6887, 6889, 6890, 6888, 6902, 6904, 6905, 6903
4898, 3609, 6888, 6891, 3612, 3616, 6903, 6906, 3619
4899, 6888, 6890, 6892, 6891, 6903, 6905, 6907, 6906
4900, 3617, 6902, 6903, 3616, 3691, 5262, 5577, 3692
4901, 6902, 6904, 6905, 6903, 5262, 5264, 5579, 5577
4902, 3616, 6903, 6906, 3619, 3692, 5577, 5581, 3696
4903, 6903, 6905, 6907, 6906, 5577, 5579, 5583, 5581
4904, 6889, 6899, 6900, 6890, 6904, 5623, 5629, 6905
4905, 6899, 6744, 6825, 6900, 5623, 5625, 5630, 5629
4906, 6890, 6900, 6901, 6892, 6905, 5629, 6908, 6907
4907, 6900, 6825, 6828, 6901, 5629, 5630, 5790, 6908
4908, 6904, 5623, 5629, 6905, 5264, 5311, 5587, 5579
4909, 6905, 5629, 6908, 6907, 5579, 5587, 5632, 5583
4910, 3612, 6891, 3772, 3614, 3619, 6906, 3778, 3620
4911, 6891, 6892, 3774, 3772, 6906, 6907, 3780, 3778
4912, 3619, 6906, 3778, 3620, 3696, 5581, 3783, 3699
4913, 6906, 6907, 3780, 3778, 5581, 5583, 3785, 3783
4914, 6892, 6901, 3776, 3774, 6907, 6908, 3781, 3780
4915, 6901, 6828, 3835, 3776, 6908, 5790, 3842, 3781
4916, 6907, 6908, 3781, 3780, 5583, 5632, 3787, 3785
4917, 6908, 5790, 3842, 3781, 5632, 5634, 3850, 3787
4918, 2902, 3026, 6909, 2903, 2901, 3027, 6910, 2900
4919, 3026, 3030, 6911, 6909, 3027, 3031, 6912, 6910
4920, 2903, 6909, 6913, 2907, 2900, 6910, 6914, 2906
4921, 6909, 6911, 6915, 6913, 6910, 6912, 6916, 6914
4922, 2901, 3027, 6910, 2900, 2914, 3037, 6917, 2913
4923, 3027, 3031, 6912, 6910, 3037, 3039, 6918, 6917
4924, 2900, 6910, 6914, 2906, 2913, 6917, 6919, 2916
4925, 6910, 6912, 6916, 6914, 6917, 6918, 6920, 6919
4926, 3030, 3034, 6921, 6911, 3031, 3035, 6922, 6912
4927, 3034, 3078, 6699, 6921, 3035, 3081, 6701, 6922
4928, 6911, 6921, 6923, 6915, 6912, 6922, 6924, 6916
4929, 6921, 6699, 6705, 6923, 6922, 6701, 6707, 6924
4930, 3031, 3035, 6922, 6912, 3039, 3041, 6925, 6918
4931, 3035, 3081, 6701, 6922, 3041, 3093, 6711, 6925
4932, 6912, 6922, 6924, 6916, 6918, 6925, 6926, 6920
4933, 6922, 6701, 6707, 6924, 6925, 6711, 6714, 6926
4934, 2907, 6913, 6927, 2910, 2906, 6914, 6928, 2909
4935, 6913, 6915, 6929, 6927, 6914, 6916, 6930, 6928
4936, 2910, 6927, 6875, 3598, 2909, 6928, 6877, 3597
4937, 6927, 6929, 6879, 6875, 6928, 6930, 6881, 6877
4938, 2906, 6914, 6928, 2909, 2916, 6919, 6931, 2918
4939, 6914, 6916, 6930, 6928, 6919, 6920, 6932, 6931
4940, 2909, 6928, 6877, 3597, 2918, 6931, 6887, 3610
4941, 6928, 6930, 6881, 6877, 6931, 6932, 6889, 6887
4942, 6915, 6923, 6933, 6929, 6916, 6924, 6934, 6930
4943, 6923, 6705, 6729, 6933, 6924, 6707, 6731, 6934
4944, 6929, 6933, 6893, 6879, 6930, 6934, 6895, 6881
4945, 6933, 6729, 6735, 6893, 6934, 6731, 6737, 6895
4946, 6916, 6924, 6934, 6930, 6920, 6926, 6935, 6932
4947, 6924, 6707, 6731, 6934, 6926, 6714, 6741, 6935
4948, 6930, 6934, 6895, 6881, 6932, 6935, 6899, 6889
4949, 6934, 6731, 6737, 6895, 6935, 6741, 6744, 6899
4950, 2914, 3037, 6917, 2913, 2921, 3043, 6936, 2920
4951, 3037, 3039, 6918, 6917, 3043, 3045, 6937, 6936
4952, 2913, 6917, 6919, 2916, 2920, 6936, 6938, 2923
4953, 6917, 6918, 6920, 6919, 6936, 6937, 6939, 6938
4954, 2921, 3043, 6936, 2920, 2994, 3048, 5236, 2995
4955, 3043, 3045, 6937, 6936, 3048, 3050, 5238, 5236
4956, 2920, 6936, 6938, 2923, 2995, 5236, 5240, 2999
4957, 6936, 6937, 6939, 6938, 5236, 5238, 5242, 5240
4958, 3039, 3041, 6925, 6918, 3045, 3047, 6940, 6937
4959, 3041, 3093, 6711, 6925, 3047, 3101, 5433, 6940
4960, 6918, 6925, 6926, 6920, 6937, 6940, 5303, 6939
4961, 6925, 6711, 6714, 6926, 6940, 5433, 5305, 5303
4962, 3045, 3047, 6940, 6937, 3050, 3052, 5248, 5238
4963, 3047, 3101, 5433, 6940, 3052, 3107, 5250, 5248
4964, 6937, 6940, 5303, 6939, 5238, 5248, 5252, 5242
4965, 2916, 6919, 6931, 2918, 2923, 6938, 6941, 2924
4966, 6919, 6920, 6932, 6931, 6938, 6939, 6942, 6941
4967, 2918, 6931, 6887, 3610, 2924, 6941, 6902, 3617
4968, 6931, 6932, 6889, 6887, 6941, 6942, 6904, 6902
4969, 2923, 6938, 6941, 2924, 2999, 5240, 5258, 3002
4970, 6938, 6939, 6942, 6941, 5240, 5242, 5260, 5258
4971, 2924, 6941, 6902, 3617, 3002, 5258, 5262, 3691
4972, 6941, 6942, 6904, 6902, 5258, 5260, 5264, 5262
4973, 6920, 6926, 6935, 6932, 6939, 5303, 5309, 6942
4974, 6926, 6714, 6741, 6935, 5303, 5305, 5310, 5309
4975, 6932, 6935, 6899, 6889, 6942, 5309, 5623, 6904
4976, 6935, 6741, 6744, 6899, 5309, 5310, 5625, 5623
4977, 6939, 5303, 5309, 6942, 5242, 5252, 5269, 5260
4978, 6942, 5309, 5623, 6904, 5260, 5269, 5311, 5264
4979, 435, 436, 433, 434, 636, 635, 6943, 6944
4980, 436, 440, 439, 433, 635, 6945, 6946, 6943
4981, 434, 433, 443, 444, 6944, 6943, 6947, 6948
4982, 433, 439, 446, 443, 6943, 6946, 6949, 6947
4983, 636, 635, 6943, 6944, 640, 639, 6950, 6951
4984, 6944, 6943, 6947, 6948, 6951, 6950, 6952, 6953
4985, 6943, 6946, 6949, 6947, 6950, 6954, 6955, 6952
4986, 444, 443, 448, 449, 6948, 6947, 6956, 6957
4987, 443, 446, 451, 448, 6947, 6949, 6958, 6956
4988, 449, 448, 948, 947, 6957, 6956, 6959, 6960
4989, 448, 451, 952, 948, 6956, 6958, 6961, 6959
4990, 6948, 6947, 6956, 6957, 6953, 6952, 6962, 6963
4991, 6947, 6949, 6958, 6956, 6952, 6955, 6964, 6962
4992, 6957, 6956, 6959, 6960, 6963, 6962, 6965, 6966
4993, 6956, 6958, 6961, 6959, 6962, 6964, 6967, 6965
4994, 446, 454, 453, 451, 6949, 6968, 6969, 6958
4995, 451, 453, 955, 952, 6958, 6969, 6970, 6961
4996, 640, 639, 6950, 6951, 6971, 6972, 3148, 3143
4997, 6951, 6950, 6952, 6953, 3143, 3148, 3147, 3141
4998, 6953, 6952, 6962, 6963, 3141, 3147, 3149, 6973
4999, 6952, 6955, 6964, 6962, 3147, 3152, 3153, 3149
5000, 6963, 6962, 6965, 6966, 6973, 3149, 3866, 6974
5001, 6962, 6964, 6967, 6965, 3149, 3153, 3870, 3866
5002, 6975, 6976, 3141, 3142, 6783, 6718, 3125, 3126
5003, 6977, 6975, 3142, 3145, 6785, 6783, 3126, 3133
5004, 3151, 6977, 3145, 3147, 6978, 6785, 3133, 6979
5005, 6980, 6981, 6976, 6975, 6787, 6722, 6718, 6783
5006, 6982, 6980, 6975, 6977, 6789, 6787, 6783, 6785
5007, 3150, 6982, 6977, 3151, 6806, 6789, 6785, 6978
5008, 6983, 6973, 6981, 6980, 6793, 6748, 6722, 6787
5009, 6984, 6983, 6980, 6982, 6795, 6793, 6787, 6789
5010, 3149, 6984, 6982, 3150, 6807, 6795, 6789, 6806
5011, 6983, 6973, 3141, 3142, 6980, 6981, 6976, 6975
5012, 3149, 6984, 3145, 3147, 3150, 6982, 6977, 3151
5013, 6984, 6983, 3142, 3145, 6982, 6980, 6975, 6977
5014, 3149, 6973, 3141, 3147, 6984, 6983, 3142, 3145
5015, 6976, 6985, 3118, 3141, 6718, 6716, 3089, 3125
5016, 6981, 6986, 6985, 6976, 6722, 6720, 6716, 6718
5017, 6973, 6987, 3118, 3141, 6981, 6986, 6985, 6976
5018, 6973, 6987, 6986, 6981, 6748, 6746, 6720, 6722
5019, 867, 868, 865, 866, 987, 6988, 6989, 986
5020, 868, 872, 871, 865, 6988, 6990, 6991, 6989
5021, 866, 865, 878, 879, 986, 6989, 6992, 989
5022, 865, 871, 881, 878, 6989, 6991, 6993, 6992
5023, 987, 6988, 6989, 986, 995, 6994, 6995, 994
5024, 6988, 6990, 6991, 6989, 6994, 6996, 6997, 6995
5025, 986, 6989, 6992, 989, 994, 6995, 6998, 997
5026, 6989, 6991, 6993, 6992, 6995, 6997, 6999, 6998
5027, 872, 875, 874, 871, 6990, 7000, 7001, 6991
5028, 875, 913, 912, 874, 7000, 7002, 7003, 7001
5029, 871, 874, 883, 881, 6991, 7001, 7004, 6993
5030, 874, 912, 925, 883, 7001, 7003, 7005, 7004
5031, 6990, 7000, 7001, 6991, 6996, 7006, 7007, 6997
5032, 7000, 7002, 7003, 7001, 7006, 7008, 7009, 7007
5033, 6991, 7001, 7004, 6993, 6997, 7007, 7010, 6999
5034, 7001, 7003, 7005, 7004, 7007, 7009, 7011, 7010
5035, 879, 878, 885, 886, 989, 6992, 1013, 991
5036, 878, 881, 888, 885, 6992, 6993, 1015, 1013
5037, 989, 6992, 1013, 991, 997, 6998, 1019, 999
5038, 6992, 6993, 1015, 1013, 6998, 6999, 1021, 1019
5039, 881, 883, 889, 888, 6993, 7004, 1017, 1015
5040, 883, 925, 932, 889, 7004, 7005, 1100, 1017
5041, 6993, 7004, 1017, 1015, 6999, 7010, 1023, 1021
5042, 7004, 7005, 1100, 1017, 7010, 7011, 1108, 1023
5043, 995, 6994, 6995, 994, 1002, 7012, 7013, 1001
5044, 6994, 6996, 6997, 6995, 7012, 7014, 7015, 7013
5045, 994, 6995, 6998, 997, 1001, 7013, 7016, 1004
5046, 6995, 6997, 6999, 6998, 7013, 7015, 7017, 7016
5047, 1002, 7012, 7013, 1001, 1072, 2887, 3580, 1073
5048, 7012, 7014, 7015, 7013, 2887, 2889, 3582, 3580
5049, 1001, 7013, 7016, 1004, 1073, 3580, 3584, 1077
5050, 7013, 7015, 7017, 7016, 3580, 3582, 3586, 3584
5051, 6996, 7006, 7007, 6997, 7014, 3621, 3627, 7015
5052, 7006, 7008, 7009, 7007, 3621, 3623, 3628, 3627
5053, 6997, 7007, 7010, 6999, 7015, 3627, 7018, 7017
5054, 7007, 7009, 7011, 7010, 3627, 3628, 3788, 7018
5055, 7014, 3621, 3627, 7015, 2889, 2937, 3591, 3582
5056, 7015, 3627, 7018, 7017, 3582, 3591, 3630, 3586
5057, 997, 6998, 1019, 999, 1004, 7016, 1026, 1005
5058, 6998, 6999, 1021, 1019, 7016, 7017, 1028, 1026
5059, 1004, 7016, 1026, 1005, 1077, 3584, 1034, 1080
5060, 7016, 7017, 1028, 1026, 3584, 3586, 1033, 1034
5061, 6999, 7010, 1023, 1021, 7017, 7018, 1030, 1028
5062, 7010, 7011, 1108, 1023, 7018, 3788, 1116, 1030
5063, 7017, 7018, 1030, 1028, 3586, 3630, 1036, 1033
5064, 7018, 3788, 1116, 1030, 3630, 3632, 1124, 1036
5065, 913, 914, 911, 912, 7002, 7019, 7020, 7003
5066, 914, 918, 917, 911, 7019, 7021, 7022, 7020
5067, 912, 911, 924, 925, 7003, 7020, 7023, 7005
5068, 911, 917, 927, 924, 7020, 7022, 7024, 7023
5069, 7002, 7019, 7020, 7003, 7008, 7025, 7026, 7009
5070, 7019, 7021, 7022, 7020, 7025, 7027, 7028, 7026
5071, 7003, 7020, 7023, 7005, 7009, 7026, 7029, 7011
5072, 7020, 7022, 7024, 7023, 7026, 7028, 7030, 7029
5073, 918, 921, 920, 917, 7021, 7031, 7032, 7022
5074, 921, 947, 946, 920, 7031, 6960, 7033, 7032
5075, 917, 920, 929, 927, 7022, 7032, 7034, 7024
5076, 920, 946, 959, 929, 7032, 7033, 7035, 7034
5077, 7021, 7031, 7032, 7022, 7027, 7036, 7037, 7028
5078, 7031, 6960, 7033, 7032, 7036, 6966, 7038, 7037
5079, 7022, 7032, 7034, 7024, 7028, 7037, 7039, 7030
5080, 7032, 7033, 7035, 7034, 7037, 7038, 7040, 7039
5081, 925, 924, 931, 932, 7005, 7023, 1099, 1100
5082, 924, 927, 934, 931, 7023, 7024, 1102, 1099
5083, 7005, 7023, 1099, 1100, 7011, 7029, 1107, 1108
5084, 7023, 7024, 1102, 1099, 7029, 7030, 1110, 1107
5085, 927, 929, 935, 934, 7024, 7034, 1104, 1102
5086, 929, 959, 964, 935, 7034, 7035, 1132, 1104
5087, 7024, 7034, 1104, 1102, 7030, 7039, 1112, 1110
5088, 7034, 7035, 1132, 1104, 7039, 7040, 1136, 1112
5089, 7008, 7025, 7026, 7009, 3623, 7041, 3794, 3628
5090, 7025, 7027, 7028, 7026, 7041, 7042, 3855, 3794
5091, 7009, 7026, 7029, 7011, 3628, 3794, 3793, 3788
5092, 7026, 7028, 7030, 7029, 3794, 3855, 3853, 3793
5093, 7043, 3624, 3623, 7044, 6876, 3599, 3598, 6875
5094, 7045, 7043, 7044, 7046, 6880, 6876, 6875, 6879
5095, 7047, 7045, 7046, 7041, 6894, 6880, 6879, 6893
5096, 7048, 3626, 3624, 7043, 6883, 3603, 3599, 6876
5097, 7049, 7048, 7043, 7045, 6885, 6883, 6876, 6880
5098, 7050, 7049, 7045, 7047, 6897, 6885, 6880, 6894
5099, 3790, 3628, 3626, 7048, 3763, 3606, 3603, 6883
5100, 3792, 3790, 7048, 7049, 3767, 3763, 6883, 6885
5101, 3794, 3792, 7049, 7050, 3770, 3767, 6885, 6897
5102, 3790, 3628, 3623, 7044, 7048, 3626, 3624, 7043
5103, 3794, 3792, 7046, 7041, 7050, 7049, 7045, 7047
5104, 3792, 3790, 7044, 7046, 7049, 7048, 7043, 7045
5105, 3794, 3628, 3623, 7041, 3792, 3790, 7044, 7046
5106, 7051, 7044, 3623, 2936, 6927, 6875, 3598, 2910
5107, 7052, 7046, 7044, 7051, 6929, 6879, 6875, 6927
5108, 7053, 7041, 3623, 2936, 7052, 7046, 7044, 7051
5109, 7053, 7041, 7046, 7052, 6933, 6893, 6879, 6929
5110, 7027, 7036, 7037, 7028, 7042, 7054, 3860, 3855
5111, 7036, 6966, 7038, 7037, 7054, 6974, 3892, 3860
5112, 7028, 7037, 7039, 7030, 3855, 3860, 3859, 3853
5113, 7037, 7038, 7040, 7039, 3860, 3892, 3890, 3859
5114, 7055, 7056, 7042, 7057, 6812, 6813, 6735, 6734
5115, 7058, 7055, 7057, 7059, 6816, 6812, 6734, 6738
5116, 7060, 7058, 7059, 7054, 6830, 6816, 6738, 6750
5117, 7061, 7062, 7056, 7055, 6818, 6819, 6813, 6812
5118, 7063, 7061, 7055, 7058, 6822, 6818, 6812, 6816
5119, 7064, 7063, 7058, 7060, 6834, 6822, 6816, 6830
5120, 3856, 3855, 7062, 7061, 3823, 3822, 6819, 6818
5121, 3858, 3856, 7061, 7063, 3827, 3823, 6818, 6822
5122, 3860, 3858, 7063, 7064, 3831, 3827, 6822, 6834
5123, 3856, 3855, 7042, 7057, 7061, 7062, 7056, 7055
5124, 3860, 3858, 7059, 7054, 7064, 7063, 7058, 7060
5125, 3858, 3856, 7057, 7059, 7063, 7061, 7055, 7058
5126, 3860, 3855, 7042, 7054, 3858, 3856, 7057, 7059
5127, 7056, 7047, 7041, 7042, 6813, 6894, 6893, 6735
5128, 7062, 7050, 7047, 7056, 6819, 6897, 6894, 6813
5129, 3855, 3794, 7041, 7042, 7062, 7050, 7047, 7056
5130, 3855, 3794, 7050, 7062, 3822, 3770, 6897, 6819
5131, 7065, 7057, 7042, 7066, 6728, 6734, 6735, 6729
5132, 7067, 7059, 7057, 7065, 6732, 6738, 6734, 6728
5133, 6987, 7054, 7042, 7066, 7067, 7059, 7057, 7065
5134, 6987, 7054, 7059, 7067, 6746, 6750, 6738, 6732
5135, 7011, 7029, 1107, 1108, 3788, 3793, 1115, 1116
5136, 7029, 7030, 1110, 1107, 3793, 3853, 1118, 1115
5137, 3788, 3793, 1115, 1116, 3632, 3757, 1123, 1124
5138, 3793, 3853, 1118, 1115, 3757, 3795, 1126, 1123
5139, 7030, 7039, 1112, 1110, 3853, 3859, 1120, 1118
5140, 7039, 7040, 1136, 1112, 3859, 3890, 7068, 1120
5141, 3853, 3859, 1120, 1118, 3795, 3829, 7069, 1126
5142, 3859, 3890, 7068, 1120, 3829, 3876, 7070, 7069
5143, 947, 948, 945, 946, 6960, 6959, 7071, 7033
5144, 948, 952, 951, 945, 6959, 6961, 7072, 7071
5145, 946, 945, 958, 959, 7033, 7071, 7073, 7035
5146, 945, 951, 961, 958, 7071, 7072, 7074, 7073
5147, 6960, 6959, 7071, 7033, 6966, 6965, 7075, 7038
5148, 6959, 6961, 7072, 7071, 6965, 6967, 7076, 7075
5149, 7033, 7071, 7073, 7035, 7038, 7075, 7077, 7040
5150, 7071, 7072, 7074, 7073, 7075, 7076, 7078, 7077
5151, 952, 955, 954, 951, 6961, 6970, 7079, 7072
5152, 959, 958, 963, 964, 7035, 7073, 1131, 1132
5153, 958, 961, 966, 963, 7073, 7074, 7080, 1131
5154, 7035, 7073, 1131, 1132, 7040, 7077, 1135, 1136
5155, 6966, 6965, 7075, 7038, 6974, 3866, 3867, 3892
5156, 6965, 6967, 7076, 7075, 3866, 3870, 3871, 3867
5157, 7038, 7075, 7077, 7040, 3892, 3867, 3896, 3890
5158, 7081, 7082, 6974, 7083, 6863, 6832, 6752, 6797
5159, 7084, 7081, 7083, 7085, 6865, 6863, 6797, 6799
5160, 3869, 7084, 7085, 3866, 6873, 6865, 6799, 6810
5161, 7086, 7087, 7082, 7081, 6867, 6836, 6832, 6863
5162, 7088, 7086, 7081, 7084, 6869, 6867, 6863, 6865
5163, 3868, 7088, 7084, 3869, 7089, 6869, 6865, 6873
5164, 3893, 3892, 7087, 7086, 3881, 3880, 6836, 6867
5165, 3895, 3893, 7086, 7088, 3885, 3881, 6867, 6869
5166, 3867, 3895, 7088, 3868, 7090, 3885, 6869, 7089
5167, 3893, 3892, 6974, 7083, 7086, 7087, 7082, 7081
5168, 3867, 3895, 7085, 3866, 3868, 7088, 7084, 3869
5169, 3895, 3893, 7083, 7085, 7088, 7086, 7081, 7084
5170, 3867, 3892, 6974, 3866, 3895, 3893, 7083, 7085
5171, 7082, 7060, 7054, 6974, 6832, 6830, 6750, 6752
5172, 7087, 7064, 7060, 7082, 6836, 6834, 6830, 6832
5173, 3892, 3860, 7054, 6974, 7087, 7064, 7060, 7082
5174, 3892, 3860, 7064, 7087, 3880, 3831, 6834, 6836
5175, 6983, 7083, 6974, 6973, 6793, 6797, 6752, 6748
5176, 6984, 7085, 7083, 6983, 6795, 6799, 6797, 6793
5177, 3149, 3866, 6974, 6973, 6984, 7085, 7083, 6983
5178, 3149, 3866, 7085, 6984, 6807, 6810, 6799, 6795
5179, 7040, 7077, 1135, 1136, 3890, 3896, 7091, 7068
5180, 397, 398, 395, 396, 604, 603, 7092, 7093
5181, 398, 402, 401, 395, 603, 607, 7094, 7092
5182, 396, 395, 408, 409, 7093, 7092, 7095, 7096
5183, 395, 401, 411, 408, 7092, 7094, 7097, 7095
5184, 604, 603, 7092, 7093, 612, 611, 7098, 7099
5185, 603, 607, 7094, 7092, 611, 615, 7100, 7098
5186, 7093, 7092, 7095, 7096, 7099, 7098, 7101, 7102
5187, 7092, 7094, 7097, 7095, 7098, 7100, 7103, 7101
5188, 402, 405, 404, 401, 607, 609, 7104, 7094
5189, 405, 435, 434, 404, 609, 636, 6944, 7104
5190, 401, 404, 413, 411, 7094, 7104, 7105, 7097
5191, 404, 434, 444, 413, 7104, 6944, 6948, 7105
5192, 607, 609, 7104, 7094, 615, 617, 7106, 7100
5193, 609, 636, 6944, 7104, 617, 640, 6951, 7106
5194, 7094, 7104, 7105, 7097, 7100, 7106, 7107, 7103
5195, 7104, 6944, 6948, 7105, 7106, 6951, 6953, 7107
5196, 409, 408, 415, 416, 7096, 7095, 7108, 7109
5197, 408, 411, 418, 415, 7095, 7097, 7110, 7108
5198, 416, 415, 914, 913, 7109, 7108, 7019, 7002
5199, 415, 418, 918, 914, 7108, 7110, 7021, 7019
5200, 7096, 7095, 7108, 7109, 7102, 7101, 7111, 7112
5201, 7095, 7097, 7110, 7108, 7101, 7103, 7113, 7111
5202, 7109, 7108, 7019, 7002, 7112, 7111, 7025, 7008
5203, 7108, 7110, 7021, 7019, 7111, 7113, 7027, 7025
5204, 411, 413, 419, 418, 7097, 7105, 7114, 7110
5205, 413, 444, 449, 419, 7105, 6948, 6957, 7114
5206, 418, 419, 921, 918, 7110, 7114, 7031, 7021
5207, 419, 449, 947, 921, 7114, 6957, 6960, 7031
5208, 7097, 7105, 7114, 7110, 7103, 7107, 7115, 7113
5209, 7105, 6948, 6957, 7114, 7107, 6953, 6963, 7115
5210, 7110, 7114, 7031, 7021, 7113, 7115, 7036, 7027
5211, 7114, 6957, 6960, 7031, 7115, 6963, 6966, 7036
5212, 612, 611, 7098, 7099, 620, 619, 3060, 3055
5213, 611, 615, 7100, 7098, 619, 623, 3114, 3060
5214, 7099, 7098, 7101, 7102, 3055, 3060, 3059, 2931
5215, 7098, 7100, 7103, 7101, 3060, 3114, 3112, 3059
5216, 620, 619, 3060, 3055, 628, 627, 3020, 2875
5217, 619, 623, 3114, 3060, 627, 631, 3023, 3020
5218, 615, 617, 7106, 7100, 623, 625, 3119, 3114
5219, 617, 640, 6951, 7106, 625, 6971, 3143, 3119
5220, 7100, 7106, 7107, 7103, 3114, 3119, 3118, 3112
5221, 7106, 6951, 6953, 7107, 3119, 3143, 3141, 3118
5222, 623, 625, 3119, 3114, 631, 633, 3075, 3023
5223, 625, 6971, 3143, 3119, 633, 7116, 3129, 3075
5224, 7102, 7101, 7111, 7112, 2931, 3059, 7053, 2936
5225, 7101, 7103, 7113, 7111, 3059, 3112, 7066, 7053
5226, 7112, 7111, 7025, 7008, 2936, 7053, 7041, 3623
5227, 7111, 7113, 7027, 7025, 7053, 7066, 7042, 7041
5228, 7117, 2932, 2931, 3054, 6909, 2903, 2902, 3026
5229, 7118, 7117, 3054, 3057, 6911, 6909, 3026, 3030
5230, 7119, 7118, 3057, 3059, 6921, 6911, 3030, 3034
5231, 7120, 2934, 2932, 7117, 6913, 2907, 2903, 6909
5232, 7121, 7120, 7117, 7118, 6915, 6913, 6909, 6911
5233, 7122, 7121, 7118, 7119, 6923, 6915, 6911, 6921
5234, 7051, 2936, 2934, 7120, 6927, 2910, 2907, 6913
5235, 7052, 7051, 7120, 7121, 6929, 6927, 6913, 6915
5236, 7053, 7052, 7121, 7122, 6933, 6929, 6915, 6923
5237, 7051, 2936, 2931, 3054, 7120, 2934, 2932, 7117
5238, 7053, 7052, 3057, 3059, 7122, 7121, 7118, 7119
5239, 7052, 7051, 3054, 3057, 7121, 7120, 7117, 7118
5240, 7053, 2936, 2931, 3059, 7052, 7051, 3054, 3057
5241, 7103, 7107, 7115, 7113, 3112, 3118, 6987, 7066
5242, 7107, 6953, 6963, 7115, 3118, 3141, 6973, 6987
5243, 7113, 7115, 7036, 7027, 7066, 6987, 7054, 7042
5244, 7115, 6963, 6966, 7036, 6987, 6973, 6974, 7054
5245, 7123, 7124, 3112, 3113, 6698, 6699, 3078, 3079
5246, 7125, 7123, 3113, 3116, 6702, 6698, 3079, 3085
5247, 6985, 7125, 3116, 3118, 6716, 6702, 3085, 3089
5248, 7126, 7127, 7124, 7123, 6704, 6705, 6699, 6698
5249, 7128, 7126, 7123, 7125, 6708, 6704, 6698, 6702
5250, 6986, 7128, 7125, 6985, 6720, 6708, 6702, 6716
5251, 7065, 7066, 7127, 7126, 6728, 6729, 6705, 6704
5252, 7067, 7065, 7126, 7128, 6732, 6728, 6704, 6708
5253, 6987, 7067, 7128, 6986, 6746, 6732, 6708, 6720
5254, 7065, 7066, 3112, 3113, 7126, 7127, 7124, 7123
5255, 6987, 7067, 3116, 3118, 6986, 7128, 7125, 6985
5256, 7067, 7065, 3113, 3116, 7128, 7126, 7123, 7125
5257, 6987, 7066, 3112, 3118, 7067, 7065, 3113, 3116
5258, 7124, 7119, 3059, 3112, 6699, 6921, 3034, 3078
5259, 7127, 7122, 7119, 7124, 6705, 6923, 6921, 6699
5260, 7066, 7053, 3059, 3112, 7127, 7122, 7119, 7124
5261, 7066, 7053, 7122, 7127, 6729, 6933, 6923, 6705
5262, 339, 340, 337, 338, 462, 461, 7129, 511
5263, 340, 344, 343, 337, 461, 465, 7130, 7129
5264, 338, 337, 350, 351, 511, 7129, 7131, 513
5265, 337, 343, 353, 350, 7129, 7130, 7132, 7131
5266, 462, 461, 7129, 511, 470, 469, 7133, 517
5267, 461, 465, 7130, 7129, 469, 473, 7134, 7133
5268, 511, 7129, 7131, 513, 517, 7133, 7135, 519
5269, 7129, 7130, 7132, 7131, 7133, 7134, 7136, 7135
5270, 344, 347, 346, 343, 465, 467, 7137, 7130
5271, 347, 397, 396, 346, 467, 604, 7093, 7137
5272, 343, 346, 355, 353, 7130, 7137, 7138, 7132
5273, 346, 396, 409, 355, 7137, 7093, 7096, 7138
5274, 465, 467, 7137, 7130, 473, 475, 7139, 7134
5275, 467, 604, 7093, 7137, 475, 612, 7099, 7139
5276, 7130, 7137, 7138, 7132, 7134, 7139, 7140, 7136
5277, 7137, 7093, 7096, 7138, 7139, 7099, 7102, 7140
5278, 351, 350, 357, 358, 513, 7131, 7141, 515
5279, 350, 353, 360, 357, 7131, 7132, 7142, 7141
5280, 358, 357, 868, 867, 515, 7141, 6988, 987
5281, 357, 360, 872, 868, 7141, 7142, 6990, 6988
5282, 513, 7131, 7141, 515, 519, 7135, 7143, 521
5283, 7131, 7132, 7142, 7141, 7135, 7136, 7144, 7143
5284, 515, 7141, 6988, 987, 521, 7143, 6994, 995
5285, 7141, 7142, 6990, 6988, 7143, 7144, 6996, 6994
5286, 353, 355, 361, 360, 7132, 7138, 7145, 7142
5287, 355, 409, 416, 361, 7138, 7096, 7109, 7145
5288, 360, 361, 875, 872, 7142, 7145, 7000, 6990
5289, 361, 416, 913, 875, 7145, 7109, 7002, 7000
5290, 7132, 7138, 7145, 7142, 7136, 7140, 7146, 7144
5291, 7138, 7096, 7109, 7145, 7140, 7102, 7112, 7146
5292, 7142, 7145, 7000, 6990, 7144, 7146, 7006, 6996
5293, 7145, 7109, 7002, 7000, 7146, 7112, 7008, 7006
5294, 470, 469, 7133, 517, 478, 477, 7147, 523
5295, 469, 473, 7134, 7133, 477, 481, 7148, 7147
5296, 517, 7133, 7135, 519, 523, 7147, 7149, 525
5297, 7133, 7134, 7136, 7135, 7147, 7148, 7150, 7149
5298, 478, 477, 7147, 523, 572, 486, 2856, 573
5299, 477, 481, 7148, 7147, 486, 485, 2859, 2856
5300, 523, 7147, 7149, 525, 573, 2856, 2862, 577
5301, 7147, 7148, 7150, 7149, 2856, 2859, 2864, 2862
5302, 473, 475, 7139, 7134, 481, 483, 7151, 7148
5303, 475, 612, 7099, 7139, 483, 620, 3055, 7151
5304, 7134, 7139, 7140, 7136, 7148, 7151, 2929, 7150
5305, 7139, 7099, 7102, 7140, 7151, 3055, 2931, 2929
5306, 481, 483, 7151, 7148, 485, 489, 2872, 2859
5307, 483, 620, 3055, 7151, 489, 628, 2875, 2872
5308, 7148, 7151, 2929, 7150, 2859, 2872, 2878, 2864
5309, 519, 7135, 7143, 521, 525, 7149, 7152, 526
5310, 7135, 7136, 7144, 7143, 7149, 7150, 7153, 7152
5311, 521, 7143, 6994, 995, 526, 7152, 7012, 1002
5312, 7143, 7144, 6996, 6994, 7152, 7153, 7014, 7012
5313, 525, 7149, 7152, 526, 577, 2862, 2883, 580
5314, 7149, 7150, 7153, 7152, 2862, 2864, 2885, 2883
5315, 526, 7152, 7012, 1002, 580, 2883, 2887, 1072
5316, 7152, 7153, 7014, 7012, 2883, 2885, 2889, 2887
5317, 7136, 7140, 7146, 7144, 7150, 2929, 2935, 7153
5318, 7140, 7102, 7112, 7146, 2929, 2931, 2936, 2935
5319, 7144, 7146, 7006, 6996, 7153, 2935, 3621, 7014
5320, 7146, 7112, 7008, 7006, 2935, 2936, 3623, 3621
5321, 7150, 2929, 2935, 7153, 2864, 2878, 2895, 2885
5322, 7153, 2935, 3621, 7014, 2885, 2895, 2937, 2889
5323, 98, 101, 102, 99, 160, 198, 173, 139
5324, 105, 104, 109, 107, 119, 150, 707, 689
5325, 122, 123, 125, 124, 153, 192, 745, 715
5326, 163, 165, 167, 166, 195, 206, 224, 753
5327, 209, 213, 779, 220, 222, 261, 820, 223
5328, 250, 228, 280, 810, 1254, 284, 286, 1761
5329, 227, 275, 834, 279, 283, 1292, 1800, 285
5330, 312, 316, 317, 313, 372, 421, 397, 347
5331, 321, 320, 322, 323, 327, 358, 867, 328
5332, 330, 331, 333, 332, 361, 416, 913, 875
5333, 384, 457, 388, 385, 425, 459, 435, 405
5334, 386, 389, 391, 390, 419, 449, 947, 921
5335, 484, 622, 620, 483, 490, 630, 628, 489
5336, 502, 499, 528, 975, 547, 532, 534, 1039
5337, 498, 526, 1002, 527, 531, 580, 1072, 533
5338, 563, 538, 596, 1057, 1426, 600, 602, 1885
5339, 537, 594, 1091, 595, 599, 1454, 1916, 601
5340, 697, 698, 701, 699, 729, 764, 788, 736
5341, 854, 855, 861, 858, 889, 932, 938, 900
5342, 903, 905, 7154, 907, 935, 964, 1129, 941
5343, 1030, 1116, 1114, 1029, 1036, 1124, 1122, 1035
5344, 1228, 1339, 1317, 1205, 1146, 1151, 1152, 1147
5345, 1167, 1217, 1713, 1686, 1169, 1173, 1182, 1177
5346, 1221, 1335, 1823, 1724, 1192, 1229, 1233, 1231
5347, 1270, 1242, 1306, 1784, 1277, 1278, 1310, 1346
5348, 1241, 1303, 1817, 1305, 1308, 1362, 1857, 1309
5349, 1439, 1414, 1478, 1906, 1505, 1480, 1482, 1948
5350, 1413, 1468, 1935, 1477, 1475, 1476, 1519, 1481
5351, 1556, 1607, 1579, 1538, 1484, 1490, 1491, 1485
5352, 1551, 1602, 2007, 1973, 1528, 1557, 1561, 1559
5353, 1606, 1633, 2044, 2018, 1577, 1614, 1618, 1616
5354, 1740, 1841, 1864, 1758, 1711, 1742, 1747, 1744
5355, 1986, 2030, 2061, 2004, 1963, 1987, 1993, 1989
5356, 2094, 2093, 2097, 2096, 2101, 2132, 2184, 2158
5357, 2106, 2108, 2110, 2109, 2135, 2143, 2209, 2192
5358, 2144, 2145, 2147, 2146, 2172, 2203, 3201, 3179
5359, 2175, 2176, 2178, 2177, 2206, 2212, 2232, 3209
5360, 2254, 2237, 2258, 2288, 4040, 2263, 2267, 4060
5361, 2292, 2270, 2295, 3306, 4071, 2298, 2301, 4705
5362, 7151, 3055, 2931, 2929, 2872, 2875, 2902, 2878
5363, 2874, 2877, 2921, 2879, 2881, 2963, 2994, 2882
5364, 2935, 2936, 3623, 3621, 2895, 2910, 3598, 2937
5365, 2896, 2924, 3617, 2938, 2939, 3002, 3691, 2940
5366, 2968, 2970, 3013, 2977, 2978, 4413, 4455, 2979
5367, 2988, 3016, 3710, 3017, 3018, 4463, 4885, 3019
5368, 3060, 3114, 3112, 3059, 3020, 3023, 3078, 3034
5369, 3022, 3025, 3101, 3047, 3053, 3109, 3107, 3052
5370, 3119, 3143, 3141, 3118, 3075, 3129, 3125, 3089
5371, 3162, 3163, 3166, 3164, 3191, 3220, 3247, 3237
5372, 3192, 3193, 3195, 3194, 3223, 3228, 3271, 3255
5373, 3310, 3288, 3313, 3336, 4716, 3316, 3319, 4735
5374, 3581, 3583, 3587, 3585, 3588, 3589, 3648, 3590
5375, 3627, 3628, 3788, 7018, 3591, 3606, 3632, 3630
5376, 3592, 3620, 3636, 3635, 3637, 3699, 3716, 3656
5377, 3679, 3680, 3734, 3681, 3682, 3683, 4922, 3684
5378, 3685, 3713, 3720, 3719, 3742, 4893, 4911, 4909
5379, 3794, 3855, 3853, 3793, 3770, 3822, 3795, 3757
5380, 3781, 3842, 3796, 3758, 3787, 3850, 3848, 3786
5381, 3860, 3892, 3890, 3859, 3831, 3880, 3876, 3829
5382, 3909, 3943, 3993, 3970, 3913, 3917, 3920, 3919
5383, 3947, 3957, 4021, 4004, 3922, 3958, 3960, 3959
5384, 3986, 4016, 4621, 4601, 3961, 3989, 3991, 3990
5385, 4020, 4026, 4084, 4632, 3992, 4027, 4029, 4028
5386, 4426, 4427, 4474, 4439, 4437, 4438, 4480, 4440
5387, 4449, 4477, 4904, 4485, 4483, 4484, 4487, 4486
5388, 4506, 4518, 4551, 4533, 4489, 4510, 4512, 4511
5389, 4546, 4573, 5025, 5007, 4524, 4547, 4549, 4548
5390, 4615, 4644, 4669, 4658, 4590, 4616, 4619, 4617
5391, 4648, 4653, 4697, 4680, 4620, 4654, 4656, 4655
5392, 4873, 4874, 4940, 4875, 4876, 4877, 4948, 4878
5393, 4879, 4907, 4915, 4914, 4920, 4921, 4978, 4953
5394, 5020, 5048, 5081, 5065, 4998, 5021, 5023, 5022
5395, 6940, 5433, 5305, 5303, 5248, 5250, 5276, 5252
5396, 5249, 5251, 5295, 5253, 5254, 5256, 5340, 5257
5397, 5259, 5261, 5265, 5263, 5266, 5267, 5376, 5268
5398, 5309, 5310, 5625, 5623, 5269, 5284, 5594, 5311
5399, 5270, 5298, 5613, 5312, 5313, 5348, 5366, 5364
5400, 5323, 5375, 5359, 5324, 5326, 5999, 5966, 5327
5401, 5328, 5329, 5394, 5330, 5331, 5332, 6009, 5333
5402, 5334, 5362, 5370, 5369, 5406, 5974, 5992, 5990
5403, 5438, 5455, 5453, 5437, 5407, 5443, 5439, 5418
5404, 5578, 5580, 5584, 5582, 5585, 5653, 5675, 5586
5405, 5629, 5630, 5790, 6908, 5587, 5602, 5634, 5632
5406, 5588, 5616, 5638, 5637, 5621, 5622, 5786, 5683
5407, 5660, 5661, 5663, 5662, 5664, 5694, 5704, 5665
5408, 5708, 5725, 5748, 5726, 5727, 6152, 6178, 5728
5409, 5729, 5751, 5757, 5756, 5758, 6186, 6203, 5759
5410, 5796, 5825, 5823, 5795, 5773, 5813, 5809, 5760
5411, 5947, 5951, 5985, 5948, 5949, 5952, 6004, 5953
5412, 5954, 5955, 6027, 5956, 5957, 5958, 6035, 5959
5413, 5960, 5988, 5996, 5995, 6007, 6008, 6041, 6040
5414, 6141, 6163, 6197, 6170, 6168, 6169, 6210, 6171
5415, 6172, 6200, 6207, 6206, 6213, 6214, 6237, 6215
5416, 6233, 6294, 6300, 6247, 6216, 6234, 6236, 6235
5417, 6760, 6761, 6763, 6762, 6374, 6376, 6380, 6378
5418, 7053, 7066, 7042, 7041, 6933, 6729, 6735, 6893
5419, 6987, 6973, 6974, 7054, 6746, 6748, 6752, 6750
5420, 7155, 7156, 7157, 7158, 1, 2, 3, 4
5421, 7159, 7160, 7156, 7155, 5, 6, 2, 1
5422, 7159, 7155, 7158, 7162, 5, 1, 4, 8
5423, 7161, 7162, 7158, 7157, 7, 8, 4, 3
5424, 7163, 7164, 7165, 7156, 9, 10, 11, 2
5425, 7166, 7167, 7164, 7163, 12, 13, 10, 9
5426, 7166, 7163, 7156, 7160, 12, 9, 2, 6
5427, 7164, 7168, 7169, 7165, 10, 15, 16, 11
5428, 7167, 7170, 7168, 7164, 13, 17, 15, 10
5429, 7156, 7165, 7171, 7157, 2, 11, 19, 3
5430, 7165, 7169, 7172, 7171, 11, 16, 21, 19
5431, 7173, 7174, 7175, 7176, 23, 24, 25, 26
5432, 7177, 7178, 7174, 7173, 27, 28, 24, 23
5433, 7177, 7173, 7176, 7180, 27, 23, 26, 30
5434, 7180, 7179, 7178, 7177, 30, 29, 28, 27
5435, 7181, 7182, 7167, 7166, 31, 32, 13, 12
5436, 7174, 7183, 7182, 7181, 24, 33, 32, 31
5437, 7174, 7181, 7166, 7175, 24, 31, 12, 25
5438, 7182, 7184, 7170, 7167, 32, 35, 17, 13
5439, 7183, 7185, 7184, 7182, 33, 36, 35, 32
5440, 7178, 7186, 7183, 7174, 28, 38, 33, 24
5441, 7186, 7187, 7185, 7183, 38, 40, 36, 33
5442, 7188, 7166, 7160, 7159, 42, 12, 6, 5
5443, 7176, 7175, 7166, 7188, 26, 25, 12, 42
5444, 7176, 7188, 7159, 7189, 26, 42, 5, 44
5445, 7190, 7159, 7162, 7191, 45, 5, 8, 46
5446, 7192, 7189, 7159, 7190, 47, 44, 5, 45
5447, 7192, 7190, 7191, 7194, 47, 45, 46, 49
5448, 7193, 7194, 7191, 7162, 48, 49, 46, 8
5449, 7195, 7176, 7189, 7192, 51, 26, 44, 47
5450, 7196, 7180, 7176, 7195, 52, 30, 26, 51
5451, 7196, 7195, 7192, 7198, 52, 51, 47, 54
5452, 7198, 7197, 7180, 7196, 54, 53, 30, 52
5453, 7198, 7192, 7194, 7200, 54, 47, 49, 57
5454, 7168, 7201, 7202, 7169, 15, 67, 68, 16
5455, 7170, 7203, 7201, 7168, 17, 69, 67, 15
5456, 7203, 7204, 7202, 7201, 69, 70, 68, 67
5457, 7169, 7202, 7205, 7172, 16, 68, 71, 21
5458, 7202, 7207, 7208, 7205, 68, 73, 74, 71
5459, 7204, 7209, 7207, 7202, 70, 75, 73, 68
5460, 7209, 7210, 7208, 7207, 75, 76, 74, 73
5461, 7210, 7206, 7205, 7208, 76, 72, 71, 74
5462, 7184, 7211, 7203, 7170, 35, 77, 69, 17
5463, 7185, 7212, 7211, 7184, 36, 78, 77, 35
5464, 7212, 7213, 7203, 7211, 78, 79, 69, 77
5465, 7187, 7214, 7212, 7185, 40, 80, 78, 36
5466, 7214, 7215, 7213, 7212, 80, 81, 79, 78
5467, 7203, 7216, 7209, 7204, 69, 83, 75, 70
5468, 7213, 7217, 7216, 7203, 79, 84, 83, 69
5469, 7217, 7218, 7209, 7216, 84, 85, 75, 83
5470, 7218, 7219, 7210, 7209, 85, 87, 76, 75
5471, 7215, 7220, 7217, 7213, 81, 89, 84, 79
5472, 7220, 7221, 7218, 7217, 89, 90, 85, 84
5473, 7218, 7223, 7224, 7219, 85, 93, 94, 87
5474, 7221, 7225, 7223, 7218, 90, 95, 93, 85
5475, 7225, 7226, 7224, 7223, 95, 96, 94, 93
5476, 7226, 7222, 7219, 7224, 96, 92, 87, 94
5477, 7227, 7228, 7186, 7178, 97, 98, 38, 28
5478, 7227, 7178, 7179, 7229, 97, 28, 29, 100
5479, 7228, 7230, 7187, 7186, 98, 101, 40, 38
5480, 7231, 7229, 7179, 7180, 103, 100, 29, 30
5481, 7231, 7180, 7197, 7232, 103, 30, 53, 105
5482, 7233, 7232, 7197, 7198, 106, 105, 53, 54
5483, 7233, 7198, 7200, 7235, 106, 54, 57, 108
5484, 7234, 7235, 7200, 7199, 107, 108, 57, 56
5485, 7240, 7241, 7237, 7236, 115, 116, 112, 111
5486, 7241, 7242, 7238, 7237, 116, 117, 113, 112
5487, 7242, 7241, 7240, 7239, 117, 116, 115, 114
5488, 7245, 7240, 7236, 7243, 120, 115, 111, 118
5489, 7239, 7240, 7245, 7244, 114, 115, 120, 119
5490, 7232, 7243, 7246, 7231, 105, 118, 121, 103
5491, 7236, 7237, 7246, 7243, 111, 112, 121, 118
5492, 7237, 7238, 7231, 7246, 112, 113, 103, 121
5493, 7250, 7249, 7248, 7247, 132, 131, 130, 129
5494, 7242, 7254, 7231, 7238, 117, 154, 103, 113
5495, 7254, 7249, 7229, 7231, 154, 131, 100, 103
5496, 7249, 7254, 7242, 7248, 131, 154, 117, 130
5497, 7248, 7242, 7239, 7253, 130, 117, 114, 143
5498, 7256, 7255, 7227, 7257, 156, 155, 97, 157
5499, 7249, 7257, 7227, 7229, 131, 157, 97, 100
5500, 7257, 7249, 7250, 7256, 157, 131, 132, 156
5501, 7259, 7258, 7255, 7256, 159, 158, 155, 156
5502, 7256, 7250, 7251, 7259, 156, 132, 136, 159
5503, 7258, 7228, 7227, 7255, 158, 98, 97, 155
5504, 7260, 7228, 7258, 7259, 160, 98, 158, 159
5505, 7259, 7251, 7252, 7260, 159, 136, 139, 160
5506, 7230, 7261, 7214, 7187, 101, 161, 80, 40
5507, 7261, 7262, 7215, 7214, 161, 162, 81, 80
5508, 7262, 7263, 7220, 7215, 162, 164, 89, 81
5509, 7267, 7268, 7262, 7266, 178, 181, 162, 176
5510, 7270, 7269, 7230, 7271, 197, 196, 101, 198
5511, 7271, 7264, 7265, 7270, 198, 173, 174, 197
5512, 7273, 7267, 7266, 7272, 200, 178, 176, 199
5513, 7273, 7272, 7269, 7270, 200, 199, 196, 197
5514, 7270, 7265, 7267, 7273, 197, 174, 178, 200
5515, 7272, 7266, 7262, 7261, 199, 176, 162, 161
5516, 7272, 7261, 7230, 7269, 199, 161, 101, 196
5517, 7268, 7274, 7263, 7262, 181, 203, 164, 162
5518, 7220, 7275, 7225, 7221, 89, 207, 95, 90
5519, 7263, 7276, 7275, 7220, 164, 208, 207, 89
5520, 7276, 7277, 7225, 7275, 208, 209, 95, 207
5521, 7282, 7283, 7279, 7278, 214, 215, 211, 210
5522, 7283, 7284, 7280, 7279, 215, 216, 212, 211
5523, 7284, 7283, 7282, 7281, 216, 215, 214, 213
5524, 7277, 7278, 7285, 7225, 209, 210, 217, 95
5525, 7279, 7286, 7285, 7278, 211, 218, 217, 210
5526, 7286, 7287, 7225, 7285, 218, 219, 95, 217
5527, 7287, 7286, 7279, 7280, 219, 218, 211, 212
5528, 7274, 7289, 7276, 7263, 203, 221, 208, 164
5529, 7290, 7291, 7289, 7274, 225, 226, 221, 203
5530, 7274, 7268, 7292, 7293, 203, 181, 230, 232
5531, 7293, 7292, 7294, 7295, 232, 230, 238, 240
5532, 7295, 7294, 7296, 7290, 240, 238, 246, 225
5533, 7274, 7293, 7295, 7290, 203, 232, 240, 225
5534, 7299, 7300, 7298, 7297, 256, 257, 253, 252
5535, 7303, 7299, 7297, 7302, 265, 256, 252, 263
5536, 7306, 7307, 7304, 7291, 271, 272, 269, 226
5537, 7307, 7303, 7302, 7304, 272, 265, 263, 269
5538, 7303, 7307, 7306, 7305, 265, 272, 271, 270
5539, 7304, 7308, 7289, 7291, 269, 276, 221, 226
5540, 7308, 7297, 7298, 7289, 276, 252, 253, 221
5541, 7297, 7308, 7304, 7302, 252, 276, 269, 263
5542, 7282, 7278, 7309, 7310, 214, 210, 277, 278
5543, 7300, 7310, 7309, 7298, 257, 278, 277, 253
5544, 7310, 7300, 7301, 7282, 278, 257, 258, 214
5545, 7278, 7277, 7276, 7309, 210, 209, 208, 277
5546, 7298, 7309, 7276, 7289, 253, 277, 208, 221
5547, 7311, 7312, 7291, 7290, 281, 282, 226, 225
5548, 7313, 7314, 7315, 7316, 287, 288, 289, 290
5549, 7317, 7318, 7314, 7313, 291, 292, 288, 287
5550, 7317, 7313, 7316, 7320, 291, 287, 290, 294
5551, 7319, 7320, 7316, 7315, 293, 294, 290, 289
5552, 7321, 7322, 7323, 7314, 295, 296, 297, 288
5553, 7324, 7325, 7322, 7321, 298, 299, 296, 295
5554, 7324, 7321, 7314, 7318, 298, 295, 288, 292
5555, 7322, 7326, 7327, 7323, 296, 301, 302, 297
5556, 7325, 7328, 7326, 7322, 299, 303, 301, 296
5557, 7314, 7323, 7329, 7315, 288, 297, 305, 289
5558, 7323, 7327, 7330, 7329, 297, 302, 307, 305
5559, 7331, 7332, 7325, 7324, 309, 310, 299, 298
5560, 7333, 7334, 7332, 7331, 311, 312, 310, 309
5561, 7333, 7331, 7324, 7335, 311, 309, 298, 314
5562, 7332, 7336, 7328, 7325, 310, 315, 303, 299
5563, 7334, 7337, 7336, 7332, 312, 316, 315, 310
5564, 7338, 7324, 7318, 7317, 318, 298, 292, 291
5565, 7339, 7335, 7324, 7338, 319, 314, 298, 318
5566, 7339, 7338, 7317, 7340, 319, 318, 291, 321
5567, 7340, 7317, 7320, 7341, 321, 291, 294, 323
5568, 7342, 7340, 7341, 7343, 324, 321, 323, 325
5569, 7344, 7345, 7340, 7342, 326, 327, 321, 324
5570, 7344, 7342, 7343, 7347, 326, 324, 325, 329
5571, 7346, 7347, 7343, 7341, 328, 329, 325, 323
5572, 7349, 7348, 7335, 7339, 364, 339, 314, 319
5573, 7345, 7349, 7339, 7340, 327, 364, 319, 321
5574, 7348, 7350, 7333, 7335, 339, 368, 311, 314
5575, 7350, 7351, 7334, 7333, 368, 372, 312, 311
5576, 7326, 7352, 7353, 7327, 301, 373, 374, 302
5577, 7328, 7354, 7352, 7326, 303, 375, 373, 301
5578, 7354, 7355, 7353, 7352, 375, 376, 374, 373
5579, 7327, 7353, 7356, 7330, 302, 374, 377, 307
5580, 7353, 7358, 7359, 7356, 374, 379, 380, 377
5581, 7355, 7360, 7358, 7353, 376, 381, 379, 374
5582, 7360, 7361, 7359, 7358, 381, 382, 380, 379
5583, 7361, 7357, 7356, 7359, 382, 378, 377, 380
5584, 7336, 7362, 7354, 7328, 315, 383, 375, 303
5585, 7337, 7363, 7362, 7336, 316, 384, 383, 315
5586, 7363, 7364, 7354, 7362, 384, 385, 375, 383
5587, 7354, 7365, 7360, 7355, 375, 387, 381, 376
5588, 7364, 7366, 7365, 7354, 385, 388, 387, 375
5589, 7366, 7367, 7360, 7365, 388, 389, 381, 387
5590, 7369, 7370, 7363, 7337, 421, 425, 384, 316
5591, 7360, 7371, 7372, 7361, 381, 426, 427, 382
5592, 7367, 7373, 7371, 7360, 389, 428, 426, 381
5593, 7373, 7374, 7372, 7371, 428, 429, 427, 426
5594, 7374, 7368, 7361, 7372, 429, 391, 382, 427
5595, 7379, 7377, 7378, 7380, 439, 437, 438, 440
5596, 7376, 7380, 7378, 7375, 436, 440, 438, 432
5597, 7382, 7381, 7377, 7379, 446, 445, 437, 439
5598, 7384, 7373, 7383, 7385, 453, 428, 452, 454
5599, 7382, 7385, 7383, 7381, 446, 454, 452, 445
5600, 7383, 7373, 7386, 7387, 452, 428, 455, 456
5601, 7377, 7387, 7386, 7378, 437, 456, 455, 438
5602, 7387, 7377, 7381, 7383, 456, 437, 445, 452
5603, 7373, 7367, 7366, 7386, 428, 389, 388, 455
5604, 7375, 7378, 7386, 7366, 432, 438, 455, 388
5605, 7375, 7366, 7388, 7389, 432, 388, 457, 458
5606, 7376, 7375, 7389, 7391, 436, 432, 458, 460
5607, 7390, 7391, 7389, 7388, 459, 460, 458, 457
5608, 7350, 7348, 7392, 7393, 368, 339, 462, 464
5609, 7395, 7394, 7397, 7399, 472, 470, 478, 480
5610, 7398, 7399, 7397, 7396, 479, 480, 478, 477
5611, 7350, 7393, 7395, 7399, 368, 464, 472, 480
5612, 7401, 7399, 7398, 7400, 484, 480, 479, 482
5613, 7399, 7401, 7351, 7350, 480, 484, 372, 368
5614, 7398, 7396, 7403, 7405, 479, 477, 486, 488
5615, 7404, 7405, 7403, 7402, 487, 488, 486, 485
5616, 7405, 7404, 7400, 7398, 488, 487, 482, 479
5617, 7407, 7404, 7402, 7406, 490, 487, 485, 489
5618, 7404, 7407, 7401, 7400, 487, 490, 484, 482
5619, 7410, 7393, 7392, 7408, 493, 464, 462, 491
5620, 7410, 7408, 7409, 7411, 493, 491, 492, 494
5621, 7395, 7411, 7409, 7394, 472, 494, 492, 470
5622, 7411, 7395, 7393, 7410, 494, 472, 464, 493
5623, 7412, 7349, 7345, 7344, 495, 364, 327, 326
5624, 7413, 7414, 7349, 7412, 496, 497, 364, 495
5625, 7413, 7412, 7344, 7415, 496, 495, 326, 499
5626, 7416, 7417, 7418, 7419, 500, 501, 502, 503
5627, 7420, 7421, 7417, 7416, 504, 505, 501, 500
5628, 7420, 7416, 7419, 7422, 504, 500, 503, 506
5629, 7423, 7424, 7421, 7420, 507, 508, 505, 504
5630, 7425, 7344, 7424, 7423, 509, 326, 508, 507
5631, 7425, 7423, 7420, 7422, 509, 507, 504, 506
5632, 7422, 7415, 7344, 7425, 506, 499, 326, 509
5633, 7392, 7348, 7349, 7408, 462, 339, 364, 491
5634, 7397, 7394, 7409, 7414, 478, 470, 492, 497
5635, 7409, 7408, 7349, 7414, 492, 491, 364, 497
5636, 7427, 7428, 7414, 7413, 529, 530, 497, 496
5637, 7429, 7430, 7428, 7427, 535, 536, 530, 529
5638, 7434, 7431, 7433, 7435, 543, 539, 542, 546
5639, 7435, 7433, 7436, 7437, 546, 542, 551, 553
5640, 7438, 7436, 7439, 7440, 556, 551, 557, 558
5641, 7441, 7437, 7436, 7438, 559, 553, 551, 556
5642, 7441, 7438, 7440, 7429, 559, 556, 558, 535
5643, 7442, 7435, 7437, 7441, 564, 546, 553, 559
5644, 7427, 7434, 7435, 7442, 529, 543, 546, 564
5645, 7427, 7442, 7441, 7429, 529, 564, 559, 535
5646, 7431, 7443, 7419, 7432, 539, 565, 503, 540
5647, 7434, 7444, 7443, 7431, 543, 566, 565, 539
5648, 7444, 7422, 7419, 7443, 566, 506, 503, 565
5649, 7427, 7413, 7444, 7434, 529, 496, 566, 543
5650, 7413, 7415, 7422, 7444, 496, 499, 506, 566
5651, 7446, 7447, 7428, 7445, 571, 572, 530, 568
5652, 7449, 7446, 7445, 7448, 584, 571, 568, 582
5653, 7450, 7449, 7448, 7430, 591, 584, 582, 536
5654, 7448, 7445, 7428, 7430, 582, 568, 530, 536
5655, 7447, 7397, 7414, 7428, 572, 478, 497, 530
5656, 7451, 7452, 7430, 7429, 597, 598, 536, 535
5657, 7455, 7460, 7459, 7454, 618, 626, 625, 617
5658, 7370, 7460, 7455, 7453, 425, 626, 618, 610
5659, 7460, 7457, 7456, 7458, 626, 622, 621, 624
5660, 7457, 7460, 7370, 7369, 622, 626, 425, 421
5661, 7401, 7457, 7369, 7351, 484, 622, 421, 372
5662, 7463, 7464, 7462, 7461, 629, 630, 628, 627
5663, 7464, 7463, 7456, 7457, 630, 629, 621, 622
5664, 7466, 7463, 7461, 7465, 632, 629, 627, 631
5665, 7463, 7466, 7458, 7456, 629, 632, 624, 621
5666, 7460, 7468, 7467, 7459, 626, 634, 633, 625
5667, 7468, 7466, 7465, 7467, 634, 632, 631, 633
5668, 7466, 7468, 7460, 7458, 632, 634, 626, 624
5669, 7391, 7470, 7469, 7376, 460, 637, 635, 436
5670, 7471, 7470, 7391, 7390, 638, 637, 460, 459
5671, 7470, 7474, 7472, 7469, 637, 641, 639, 635
5672, 7474, 7475, 7473, 7472, 641, 642, 640, 639
5673, 7475, 7474, 7470, 7471, 642, 641, 637, 638
5674, 7453, 7471, 7390, 7370, 610, 638, 459, 425
5675, 7475, 7455, 7454, 7473, 642, 618, 617, 640
5676, 7455, 7475, 7471, 7453, 618, 642, 638, 610
5677, 7157, 7171, 7476, 7477, 3, 19, 643, 644
5678, 7161, 7157, 7477, 7479, 7, 3, 644, 646
5679, 7478, 7479, 7477, 7476, 645, 646, 644, 643
5680, 7171, 7172, 7480, 7476, 19, 21, 647, 643
5681, 7481, 7478, 7476, 7480, 648, 645, 643, 647
5682, 7162, 7161, 7479, 7482, 8, 7, 646, 649
5683, 7193, 7162, 7482, 7484, 48, 8, 649, 651
5684, 7483, 7484, 7482, 7479, 650, 651, 649, 646
5685, 7194, 7193, 7484, 7485, 49, 48, 651, 652
5686, 7200, 7194, 7485, 7487, 57, 49, 652, 654
5687, 7486, 7487, 7485, 7484, 653, 654, 652, 651
5688, 7487, 7486, 7199, 7200, 654, 653, 56, 57
5689, 7484, 7483, 7489, 7490, 651, 650, 656, 657
5690, 7486, 7484, 7490, 7492, 653, 651, 657, 659
5691, 7491, 7492, 7490, 7489, 658, 659, 657, 656
5692, 7492, 7491, 7488, 7486, 659, 658, 655, 653
5693, 7479, 7478, 7493, 7494, 646, 645, 662, 663
5694, 7483, 7479, 7494, 7489, 650, 646, 663, 656
5695, 7495, 7489, 7494, 7493, 664, 656, 663, 662
5696, 7478, 7481, 7496, 7493, 645, 648, 665, 662
5697, 7497, 7495, 7493, 7496, 666, 664, 662, 665
5698, 7498, 7491, 7489, 7495, 669, 658, 656, 664
5699, 7499, 7498, 7495, 7497, 670, 669, 664, 666
5700, 7172, 7205, 7500, 7480, 21, 71, 671, 647
5701, 7206, 7501, 7500, 7205, 72, 672, 671, 71
5702, 7501, 7481, 7480, 7500, 672, 648, 647, 671
5703, 7206, 7210, 7503, 7501, 72, 76, 674, 672
5704, 7219, 7504, 7503, 7210, 87, 675, 674, 76
5705, 7504, 7502, 7501, 7503, 675, 673, 672, 674
5706, 7481, 7501, 7505, 7496, 648, 672, 676, 665
5707, 7502, 7506, 7505, 7501, 673, 677, 676, 672
5708, 7506, 7497, 7496, 7505, 677, 666, 665, 676
5709, 7222, 7508, 7504, 7219, 92, 679, 675, 87
5710, 7508, 7507, 7502, 7504, 679, 678, 673, 675
5711, 7507, 7509, 7506, 7502, 678, 680, 677, 673
5712, 7509, 7499, 7497, 7506, 680, 670, 666, 677
5713, 7234, 7199, 7486, 7511, 107, 56, 653, 682
5714, 7510, 7511, 7486, 7488, 681, 682, 653, 655
5715, 7515, 7516, 7513, 7512, 687, 688, 685, 684
5716, 7517, 7516, 7515, 7514, 689, 688, 687, 686
5717, 7520, 7521, 7519, 7518, 692, 693, 691, 690
5718, 7521, 7515, 7512, 7519, 693, 687, 684, 691
5719, 7514, 7515, 7521, 7520, 686, 687, 693, 692
5720, 7511, 7522, 7513, 7234, 682, 694, 685, 107
5721, 7518, 7519, 7522, 7511, 690, 691, 694, 682
5722, 7519, 7512, 7513, 7522, 691, 684, 685, 694
5723, 7243, 7232, 7233, 7524, 118, 105, 106, 696
5724, 7513, 7523, 7235, 7234, 685, 695, 108, 107
5725, 7523, 7524, 7233, 7235, 695, 696, 106, 108
5726, 7524, 7523, 7513, 7243, 696, 695, 685, 118
5727, 7516, 7245, 7243, 7513, 688, 120, 118, 685
5728, 7245, 7516, 7517, 7244, 120, 688, 689, 119
5729, 7510, 7488, 7491, 7526, 681, 655, 658, 700
5730, 7525, 7526, 7491, 7498, 699, 700, 658, 669
5731, 7527, 7525, 7498, 7499, 701, 699, 669, 670
5732, 7529, 7530, 7532, 7531, 718, 719, 726, 725
5733, 7528, 7514, 7520, 7530, 706, 686, 692, 719
5734, 7532, 7535, 7511, 7510, 726, 730, 682, 681
5735, 7535, 7520, 7518, 7511, 730, 692, 690, 682
5736, 7530, 7520, 7535, 7532, 719, 692, 730, 726
5737, 7537, 7538, 7526, 7536, 732, 733, 700, 731
5738, 7538, 7532, 7510, 7526, 733, 726, 681, 700
5739, 7532, 7538, 7537, 7531, 726, 733, 732, 725
5740, 7540, 7537, 7536, 7539, 735, 732, 731, 734
5741, 7531, 7537, 7540, 7533, 725, 732, 735, 728
5742, 7539, 7536, 7526, 7525, 734, 731, 700, 699
5743, 7541, 7540, 7539, 7525, 736, 735, 734, 699
5744, 7533, 7540, 7541, 7534, 728, 735, 736, 729
5745, 7543, 7542, 7507, 7508, 738, 737, 678, 679
5746, 7542, 7544, 7509, 7507, 737, 739, 680, 678
5747, 7544, 7527, 7499, 7509, 739, 701, 670, 680
5748, 7549, 7548, 7547, 7542, 767, 766, 765, 737
5749, 7550, 7549, 7542, 7543, 772, 767, 737, 738
5750, 7222, 7226, 7551, 7508, 92, 96, 773, 679
5751, 7288, 7552, 7551, 7226, 220, 774, 773, 96
5752, 7552, 7543, 7508, 7551, 774, 738, 679, 773
5753, 7556, 7553, 7555, 7559, 778, 775, 777, 781
5754, 7558, 7559, 7555, 7554, 780, 781, 777, 776
5755, 7559, 7558, 7557, 7556, 781, 780, 779, 778
5756, 7553, 7288, 7226, 7560, 775, 220, 96, 782
5757, 7555, 7553, 7560, 7562, 777, 775, 782, 784
5758, 7561, 7562, 7560, 7226, 783, 784, 782, 96
5759, 7562, 7561, 7554, 7555, 784, 783, 776, 777
5760, 7287, 7561, 7226, 7225, 219, 783, 96, 95
5761, 7561, 7287, 7280, 7554, 783, 219, 212, 776
5762, 7284, 7558, 7554, 7280, 216, 780, 776, 212
5763, 7563, 7550, 7543, 7552, 785, 772, 738, 774
5764, 7565, 7566, 7527, 7564, 787, 788, 701, 786
5765, 7546, 7566, 7565, 7545, 764, 788, 787, 763
5766, 7548, 7568, 7567, 7547, 766, 790, 789, 765
5767, 7568, 7565, 7564, 7567, 790, 787, 786, 789
5768, 7545, 7565, 7568, 7548, 763, 787, 790, 766
5769, 7547, 7567, 7544, 7542, 765, 789, 739, 737
5770, 7567, 7564, 7527, 7544, 789, 786, 701, 739
5771, 7569, 7570, 7550, 7563, 791, 792, 772, 785
5772, 7550, 7572, 7571, 7549, 772, 800, 799, 767
5773, 7572, 7574, 7573, 7571, 800, 808, 807, 799
5774, 7574, 7570, 7575, 7573, 808, 792, 814, 807
5775, 7550, 7570, 7574, 7572, 772, 792, 808, 800
5776, 7579, 7577, 7578, 7580, 824, 822, 823, 825
5777, 7582, 7581, 7577, 7579, 831, 830, 822, 824
5778, 7585, 7569, 7584, 7586, 838, 791, 837, 839
5779, 7582, 7586, 7584, 7581, 831, 839, 837, 830
5780, 7586, 7582, 7583, 7585, 839, 831, 836, 838
5781, 7584, 7569, 7563, 7587, 837, 791, 785, 840
5782, 7577, 7587, 7563, 7578, 822, 840, 785, 823
5783, 7587, 7577, 7581, 7584, 840, 822, 830, 837
5784, 7589, 7580, 7578, 7588, 842, 825, 823, 841
5785, 7589, 7588, 7553, 7556, 842, 841, 775, 778
5786, 7556, 7576, 7580, 7589, 778, 821, 825, 842
5787, 7588, 7578, 7563, 7552, 841, 823, 785, 774
5788, 7588, 7552, 7288, 7553, 841, 774, 220, 775
5789, 7590, 7591, 7570, 7569, 843, 844, 792, 791
5790, 7315, 7329, 7592, 7593, 289, 305, 845, 846
5791, 7319, 7315, 7593, 7595, 293, 289, 846, 848
5792, 7594, 7595, 7593, 7592, 847, 848, 846, 845
5793, 7329, 7330, 7596, 7592, 305, 307, 849, 845
5794, 7597, 7594, 7592, 7596, 850, 847, 845, 849
5795, 7320, 7319, 7595, 7598, 294, 293, 848, 851
5796, 7341, 7320, 7598, 7600, 323, 294, 851, 853
5797, 7599, 7600, 7598, 7595, 852, 853, 851, 848
5798, 7595, 7594, 7601, 7602, 848, 847, 856, 857
5799, 7599, 7595, 7602, 7604, 852, 848, 857, 859
5800, 7603, 7604, 7602, 7601, 858, 859, 857, 856
5801, 7594, 7597, 7605, 7601, 847, 850, 860, 856
5802, 7606, 7603, 7601, 7605, 861, 858, 856, 860
5803, 7607, 7608, 7600, 7599, 886, 894, 853, 852
5804, 7608, 7346, 7341, 7600, 894, 328, 323, 853
5805, 7609, 7607, 7599, 7604, 897, 886, 852, 859
5806, 7610, 7609, 7604, 7603, 900, 897, 859, 858
5807, 7330, 7356, 7611, 7596, 307, 377, 901, 849
5808, 7357, 7612, 7611, 7356, 378, 902, 901, 377
5809, 7612, 7597, 7596, 7611, 902, 850, 849, 901
5810, 7357, 7361, 7614, 7612, 378, 382, 904, 902
5811, 7368, 7615, 7614, 7361, 391, 905, 904, 382
5812, 7615, 7613, 7612, 7614, 905, 903, 902, 904
5813, 7597, 7612, 7616, 7605, 850, 902, 906, 860
5814, 7613, 7617, 7616, 7612, 903, 907, 906, 902
5815, 7617, 7606, 7605, 7616, 907, 861, 860, 906
5816, 7619, 7618, 7606, 7617, 941, 938, 861, 907
5817, 7623, 7621, 7620, 7622, 954, 951, 949, 953
5818, 7623, 7622, 7374, 7624, 954, 953, 429, 955
5819, 7626, 7625, 7620, 7621, 961, 960, 949, 951
5820, 7628, 7629, 7615, 7627, 963, 964, 905, 962
5821, 7631, 7628, 7627, 7630, 966, 963, 962, 965
5822, 7631, 7630, 7625, 7626, 966, 965, 960, 961
5823, 7633, 7625, 7630, 7632, 968, 960, 965, 967
5824, 7633, 7632, 7374, 7622, 968, 967, 429, 953
5825, 7622, 7620, 7625, 7633, 953, 949, 960, 968
5826, 7632, 7615, 7368, 7374, 967, 905, 391, 429
5827, 7630, 7627, 7615, 7632, 965, 962, 905, 967
5828, 7384, 7624, 7374, 7373, 453, 955, 429, 428
5829, 7347, 7346, 7608, 7634, 329, 328, 894, 969
5830, 7426, 7347, 7634, 7636, 528, 329, 969, 971
5831, 7635, 7636, 7634, 7608, 970, 971, 969, 894
5832, 7637, 7638, 7639, 7640, 972, 973, 974, 975
5833, 7641, 7642, 7638, 7637, 976, 977, 973, 972
5834, 7642, 7643, 7639, 7638, 977, 978, 974, 973
5835, 7644, 7645, 7642, 7641, 979, 980, 977, 976
5836, 7347, 7646, 7645, 7644, 329, 981, 980, 979
5837, 7646, 7643, 7642, 7645, 981, 978, 977, 980
5838, 7426, 7643, 7646, 7347, 528, 978, 981, 329
5839, 7647, 7648, 7637, 7417, 982, 983, 972, 501
5840, 7424, 7644, 7648, 7647, 508, 979, 983, 982
5841, 7424, 7647, 7417, 7421, 508, 982, 501, 505
5842, 7644, 7641, 7637, 7648, 979, 976, 972, 983
5843, 7344, 7347, 7644, 7424, 326, 329, 979, 508
5844, 7650, 7649, 7608, 7607, 991, 990, 894, 886
5845, 7653, 7635, 7651, 7652, 1005, 970, 998, 999
5846, 7651, 7635, 7608, 7649, 998, 970, 894, 990
5847, 7654, 7651, 7649, 7655, 1006, 998, 990, 1007
5848, 7656, 7652, 7651, 7654, 1008, 999, 998, 1006
5849, 7656, 7654, 7655, 7657, 1008, 1006, 1007, 1009
5850, 7650, 7657, 7655, 7649, 991, 1009, 1007, 990
5851, 7658, 7659, 7636, 7635, 1010, 1011, 971, 970
5852, 7650, 7607, 7609, 7657, 991, 886, 897, 1009
5853, 7662, 7653, 7661, 7660, 1026, 1005, 1025, 1024
5854, 7653, 7652, 7656, 7661, 1005, 999, 1008, 1025
5855, 7656, 7657, 7609, 7661, 1008, 1009, 897, 1025
5856, 7664, 7661, 7609, 7610, 1029, 1025, 897, 900
5857, 7663, 7660, 7661, 7664, 1027, 1024, 1025, 1029
5858, 7665, 7666, 7660, 7663, 1031, 1032, 1024, 1027
5859, 7667, 7668, 7666, 7665, 1033, 1034, 1032, 1031
5860, 7668, 7662, 7660, 7666, 1034, 1026, 1024, 1032
5861, 7669, 7665, 7663, 7664, 1035, 1031, 1027, 1029
5862, 7670, 7667, 7665, 7669, 1036, 1033, 1031, 1035
5863, 7671, 7672, 7659, 7658, 1037, 1038, 1011, 1010
5864, 7676, 7677, 7675, 7674, 1048, 1049, 1047, 1046
5865, 7677, 7679, 7678, 7675, 1049, 1055, 1054, 1047
5866, 7678, 7681, 7682, 7680, 1054, 1061, 1062, 1059
5867, 7679, 7683, 7681, 7678, 1055, 1063, 1061, 1054
5868, 7683, 7672, 7682, 7681, 1063, 1038, 1062, 1061
5869, 7677, 7684, 7683, 7679, 1049, 1064, 1063, 1055
5870, 7676, 7659, 7684, 7677, 1048, 1011, 1064, 1049
5871, 7659, 7672, 7683, 7684, 1011, 1038, 1063, 1064
5872, 7673, 7639, 7685, 7674, 1040, 974, 1065, 1046
5873, 7643, 7686, 7685, 7639, 978, 1066, 1065, 974
5874, 7686, 7676, 7674, 7685, 1066, 1048, 1046, 1065
5875, 7426, 7636, 7686, 7643, 528, 971, 1066, 978
5876, 7636, 7659, 7676, 7686, 971, 1011, 1048, 1066
5877, 7688, 7687, 7658, 7689, 1079, 1078, 1010, 1080
5878, 7691, 7690, 7687, 7688, 1088, 1087, 1078, 1079
5879, 7692, 7671, 7690, 7691, 1094, 1037, 1087, 1088
5880, 7690, 7671, 7658, 7687, 1087, 1037, 1010, 1078
5881, 7653, 7689, 7658, 7635, 1005, 1080, 1010, 970
5882, 7693, 7694, 7672, 7671, 1095, 1096, 1038, 1037
5883, 7703, 7701, 7700, 7702, 1120, 1118, 1117, 1119
5884, 7703, 7702, 7696, 7697, 1120, 1119, 1111, 1112
5885, 7696, 7702, 7619, 7695, 1111, 1119, 941, 1103
5886, 7702, 7699, 7618, 7619, 1119, 1114, 938, 941
5887, 7700, 7698, 7699, 7702, 1117, 1113, 1114, 1119
5888, 7699, 7664, 7610, 7618, 1114, 1029, 900, 938
5889, 7704, 7705, 7699, 7698, 1121, 1122, 1114, 1113
5890, 7706, 7707, 7705, 7704, 1123, 1124, 1122, 1121
5891, 7708, 7704, 7698, 7700, 1125, 1121, 1113, 1117
5892, 7709, 7706, 7704, 7708, 1126, 1123, 1121, 1125
5893, 7709, 7708, 7700, 7701, 1126, 1125, 1117, 1118
5894, 7710, 7711, 7712, 7713, 1127, 1128, 1129, 1130
5895, 7714, 7710, 7713, 7628, 1131, 1127, 1130, 963
5896, 7629, 7628, 7713, 7712, 964, 963, 1130, 1129
5897, 7715, 7716, 7711, 7710, 1133, 1134, 1128, 1127
5898, 7717, 7718, 7716, 7715, 1135, 1136, 1134, 1133
5899, 7717, 7715, 7710, 7714, 1135, 1133, 1127, 1131
5900, 7711, 7695, 7619, 7712, 1128, 1103, 941, 1129
5901, 7716, 7696, 7695, 7711, 1134, 1111, 1103, 1128
5902, 7718, 7697, 7696, 7716, 1136, 1112, 1111, 1134
5903, 7719, 7720, 7721, 7722, 1137, 1138, 1139, 1140
5904, 7723, 7724, 7720, 7719, 1141, 1142, 1138, 1137
5905, 7723, 7719, 7722, 7726, 1141, 1137, 1140, 1144
5906, 7726, 7725, 7724, 7723, 1144, 1143, 1142, 1141
5907, 7720, 7730, 7728, 7727, 1138, 1149, 1146, 1145
5908, 7720, 7727, 7729, 7721, 1138, 1145, 1148, 1139
5909, 7730, 7732, 7731, 7728, 1149, 1153, 1151, 1146
5910, 7724, 7733, 7730, 7720, 1142, 1155, 1149, 1138
5911, 7733, 7734, 7732, 7730, 1155, 1157, 1153, 1149
5912, 7735, 7736, 7737, 7738, 1159, 1160, 1161, 1162
5913, 7739, 7740, 7736, 7735, 1163, 1164, 1160, 1159
5914, 7739, 7735, 7738, 7741, 1163, 1159, 1162, 1166
5915, 7738, 7737, 7742, 7743, 1162, 1161, 1167, 1168
5916, 7741, 7738, 7743, 7745, 1166, 1162, 1168, 1170
5917, 7746, 7747, 7740, 7739, 1171, 1172, 1164, 1163
5918, 7746, 7739, 7741, 7745, 1171, 1163, 1166, 1170
5919, 7745, 7744, 7747, 7746, 1170, 1169, 1172, 1171
5920, 7722, 7721, 7729, 7747, 1140, 1139, 1148, 1172
5921, 7722, 7747, 7744, 7748, 1140, 1172, 1169, 1175
5922, 7752, 7748, 7744, 7749, 1179, 1175, 1169, 1176
5923, 7752, 7749, 7751, 7754, 1179, 1176, 1178, 1181
5924, 7753, 7754, 7751, 7750, 1180, 1181, 1178, 1177
5925, 7755, 7722, 7748, 7752, 1184, 1140, 1175, 1179
5926, 7756, 7726, 7722, 7755, 1185, 1144, 1140, 1184
5927, 7756, 7755, 7752, 7758, 1185, 1184, 1179, 1187
5928, 7758, 7757, 7726, 7756, 1187, 1186, 1144, 1185
5929, 7758, 7752, 7754, 7760, 1187, 1179, 1181, 1190
5930, 7761, 7762, 7763, 7764, 1194, 1195, 1196, 1197
5931, 7768, 7761, 7764, 7736, 1222, 1194, 1197, 1160
5932, 7747, 7729, 7761, 7768, 1172, 1148, 1194, 1222
5933, 7747, 7768, 7736, 7740, 1172, 1222, 1160, 1164
5934, 7736, 7764, 7767, 7737, 1160, 1197, 1209, 1161
5935, 7761, 7769, 7770, 7762, 1194, 1223, 1224, 1195
5936, 7729, 7727, 7769, 7761, 1148, 1145, 1223, 1194
5937, 7727, 7771, 7770, 7769, 1145, 1225, 1224, 1223
5938, 7762, 7770, 7772, 7765, 1195, 1224, 1226, 1201
5939, 7771, 7773, 7772, 7770, 1225, 1227, 1226, 1224
5940, 7727, 7728, 7773, 7771, 1145, 1146, 1227, 1225
5941, 7765, 7772, 7774, 7766, 1201, 1226, 1228, 1205
5942, 7773, 7728, 7774, 7772, 1227, 1146, 1228, 1226
5943, 7775, 7776, 7312, 7311, 1239, 1240, 282, 281
5944, 7311, 7777, 7778, 7779, 281, 1243, 1246, 1249
5945, 7779, 7778, 7780, 7781, 1249, 1246, 1258, 1260
5946, 7781, 7780, 7782, 7775, 1260, 1258, 1266, 1239
5947, 7311, 7779, 7781, 7775, 281, 1249, 1260, 1239
5948, 7311, 7290, 7296, 7777, 281, 225, 246, 1243
5949, 7784, 7775, 7782, 7783, 1273, 1239, 1266, 1271
5950, 7787, 7788, 7786, 7785, 1282, 1283, 1280, 1279
5951, 7788, 7789, 7312, 7786, 1283, 1284, 282, 1280
5952, 7790, 7789, 7788, 7787, 1285, 1284, 1283, 1282
5953, 7792, 7787, 7785, 7791, 1296, 1282, 1279, 1294
5954, 7795, 7792, 7791, 7793, 1302, 1296, 1294, 1300
5955, 7791, 7796, 7776, 7793, 1294, 1304, 1240, 1300
5956, 7796, 7786, 7312, 7776, 1304, 1280, 282, 1240
5957, 7785, 7786, 7796, 7791, 1279, 1280, 1304, 1294
5958, 7789, 7306, 7291, 7312, 1284, 271, 226, 282
5959, 7784, 7797, 7776, 7775, 1273, 1307, 1240, 1239
5960, 7732, 7801, 7800, 7731, 1153, 1312, 1311, 1151
5961, 7801, 7802, 7783, 7800, 1312, 1313, 1271, 1311
5962, 7734, 7803, 7801, 7732, 1157, 1314, 1312, 1153
5963, 7803, 7804, 7802, 7801, 1314, 1315, 1313, 1312
5964, 7808, 7783, 7782, 7807, 1326, 1271, 1266, 1324
5965, 7805, 7809, 7810, 7806, 1317, 1339, 1340, 1318
5966, 7731, 7811, 7810, 7809, 1151, 1341, 1340, 1339
5967, 7806, 7810, 7812, 7807, 1318, 1340, 1342, 1324
5968, 7811, 7813, 7812, 7810, 1341, 1343, 1342, 1340
5969, 7813, 7808, 7807, 7812, 1343, 1326, 1324, 1342
5970, 7731, 7800, 7813, 7811, 1151, 1311, 1343, 1341
5971, 7800, 7783, 7808, 7813, 1311, 1271, 1326, 1343
5972, 7802, 7814, 7784, 7783, 1313, 1344, 1273, 1271
5973, 7804, 7817, 7814, 7802, 1315, 1350, 1344, 1313
5974, 7817, 7818, 7815, 7814, 1350, 1351, 1345, 1344
5975, 7814, 7820, 7797, 7784, 1344, 1354, 1307, 1273
5976, 7820, 7821, 7798, 7797, 1354, 1355, 1308, 1307
5977, 7815, 7821, 7820, 7814, 1345, 1355, 1354, 1344
5978, 7825, 7826, 7823, 7822, 1359, 1360, 1357, 1356
5979, 7826, 7827, 7824, 7823, 1360, 1361, 1358, 1357
5980, 7828, 7827, 7826, 7825, 1362, 1361, 1360, 1359
5981, 7821, 7829, 7824, 7798, 1355, 1363, 1358, 1308
5982, 7830, 7831, 7829, 7821, 1364, 1365, 1363, 1355
5983, 7831, 7823, 7824, 7829, 1365, 1357, 1358, 1363
5984, 7822, 7823, 7831, 7830, 1356, 1357, 1365, 1364
5985, 7827, 7833, 7832, 7824, 1361, 1367, 1366, 1358
5986, 7833, 7795, 7793, 7832, 1367, 1302, 1300, 1366
5987, 7795, 7833, 7827, 7794, 1302, 1367, 1361, 1301
5988, 7824, 7832, 7797, 7798, 1358, 1366, 1307, 1308
5989, 7832, 7793, 7776, 7797, 1366, 1300, 1240, 1307
5990, 7818, 7835, 7821, 7815, 1351, 1369, 1355, 1345
5991, 7835, 7836, 7834, 7821, 1369, 1370, 1368, 1355
5992, 7836, 7819, 7816, 7834, 1370, 1353, 1348, 1368
5993, 7819, 7836, 7835, 7818, 1353, 1370, 1369, 1351
5994, 7837, 7838, 7733, 7724, 1371, 1372, 1155, 1142
5995, 7837, 7724, 7725, 7840, 1371, 1142, 1143, 1374
5996, 7840, 7839, 7838, 7837, 1374, 1373, 1372, 1371
5997, 7838, 7841, 7734, 7733, 1372, 1375, 1157, 1155
5998, 7839, 7842, 7841, 7838, 1373, 1376, 1375, 1372
5999, 7843, 7840, 7725, 7726, 1377, 1374, 1143, 1144
6000, 7843, 7726, 7757, 7845, 1377, 1144, 1186, 1379
6001, 7845, 7844, 7840, 7843, 1379, 1378, 1374, 1377
6002, 7846, 7845, 7757, 7758, 1380, 1379, 1186, 1187
6003, 7846, 7758, 7760, 7848, 1380, 1187, 1190, 1382
6004, 7847, 7848, 7760, 7759, 1381, 1382, 1190, 1189
6005, 7848, 7847, 7845, 7846, 1382, 1381, 1379, 1380
6006, 7850, 7851, 7844, 7845, 1384, 1385, 1378, 1379
6007, 7850, 7845, 7847, 7853, 1384, 1379, 1381, 1387
6008, 7852, 7853, 7847, 7849, 1386, 1387, 1381, 1383
6009, 7853, 7852, 7851, 7850, 1387, 1386, 1385, 1384
6010, 7854, 7855, 7839, 7840, 1392, 1393, 1373, 1374
6011, 7854, 7840, 7844, 7851, 1392, 1374, 1378, 1385
6012, 7851, 7856, 7855, 7854, 1385, 1394, 1393, 1392
6013, 7855, 7857, 7842, 7839, 1393, 1395, 1376, 1373
6014, 7856, 7858, 7857, 7855, 1394, 1396, 1395, 1393
6015, 7852, 7859, 7856, 7851, 1386, 1397, 1394, 1385
6016, 7859, 7860, 7858, 7856, 1397, 1398, 1396, 1394
6017, 7841, 7861, 7803, 7734, 1375, 1399, 1314, 1157
6018, 7861, 7862, 7804, 7803, 1399, 1400, 1315, 1314
6019, 7842, 7862, 7861, 7841, 1376, 1400, 1399, 1375
6020, 7862, 7864, 7817, 7804, 1400, 1402, 1350, 1315
6021, 7864, 7865, 7818, 7817, 1402, 1403, 1351, 1350
6022, 7863, 7865, 7864, 7862, 1401, 1403, 1402, 1400
6023, 7865, 7867, 7819, 7818, 1403, 1405, 1353, 1351
6024, 7857, 7868, 7862, 7842, 1395, 1406, 1400, 1376
6025, 7868, 7869, 7863, 7862, 1406, 1407, 1401, 1400
6026, 7858, 7869, 7868, 7857, 1396, 1407, 1406, 1395
6027, 7860, 7870, 7869, 7858, 1398, 1408, 1407, 1396
6028, 7869, 7871, 7865, 7863, 1407, 1409, 1403, 1401
6029, 7871, 7872, 7867, 7865, 1409, 1410, 1405, 1403
6030, 7872, 7870, 7866, 7867, 1410, 1408, 1404, 1405
6031, 7870, 7872, 7871, 7869, 1408, 1410, 1409, 1407
6032, 7873, 7874, 7452, 7451, 1411, 1412, 598, 597
6033, 7875, 7876, 7877, 7878, 1415, 1416, 1417, 1418
6034, 7451, 7875, 7878, 7880, 597, 1415, 1418, 1421
6035, 7879, 7880, 7878, 7877, 1420, 1421, 1418, 1417
6036, 7879, 7877, 7881, 7882, 1420, 1417, 1430, 1432
6037, 7882, 7881, 7884, 7885, 1432, 1430, 1436, 1438
6038, 7880, 7879, 7882, 7886, 1421, 1420, 1432, 1440
6039, 7451, 7880, 7886, 7873, 597, 1421, 1440, 1411
6040, 7885, 7873, 7886, 7882, 1438, 1411, 1440, 1432
6041, 7875, 7440, 7439, 7876, 1415, 558, 557, 1416
6042, 7451, 7429, 7440, 7875, 597, 535, 558, 1415
6043, 7888, 7889, 7452, 7887, 1445, 1446, 598, 1442
6044, 7891, 7888, 7887, 7890, 1458, 1445, 1442, 1456
6045, 7892, 7891, 7890, 7874, 1465, 1458, 1456, 1412
6046, 7890, 7887, 7452, 7874, 1456, 1442, 598, 1412
6047, 7889, 7450, 7430, 7452, 1446, 591, 536, 598
6048, 7894, 7892, 7874, 7893, 1472, 1465, 1412, 1470
6049, 7895, 7893, 7874, 7873, 1479, 1470, 1412, 1411
6050, 7900, 7901, 7899, 7898, 1486, 1487, 1484, 1483
6051, 7900, 7898, 7894, 7902, 1486, 1483, 1472, 1489
6052, 7901, 7904, 7903, 7899, 1487, 1492, 1490, 1484
6053, 7905, 7906, 7901, 7900, 1494, 1495, 1487, 1486
6054, 7905, 7900, 7902, 7907, 1494, 1486, 1489, 1497
6055, 7906, 7908, 7904, 7901, 1495, 1498, 1492, 1487
6056, 7909, 7910, 7893, 7895, 1500, 1501, 1470, 1479
6057, 7909, 7895, 7896, 7912, 1500, 1479, 1480, 1503
6058, 7912, 7911, 7910, 7909, 1503, 1502, 1501, 1500
6059, 7913, 7914, 7915, 7916, 1504, 1505, 1506, 1507
6060, 7917, 7913, 7916, 7919, 1508, 1504, 1507, 1510
6061, 7918, 7919, 7916, 7915, 1509, 1510, 1507, 1506
6062, 7919, 7918, 7920, 7921, 1510, 1509, 1511, 1512
6063, 7917, 7919, 7921, 7922, 1508, 1510, 1512, 1513
6064, 7912, 7922, 7921, 7920, 1503, 1513, 1512, 1511
6065, 7922, 7912, 7896, 7917, 1513, 1503, 1480, 1508
6066, 7923, 7884, 7883, 7913, 1514, 1436, 1435, 1504
6067, 7924, 7885, 7884, 7923, 1515, 1438, 1436, 1514
6068, 7924, 7923, 7913, 7917, 1515, 1514, 1504, 1508
6069, 7895, 7873, 7885, 7924, 1479, 1411, 1438, 1515
6070, 7895, 7924, 7917, 7896, 1479, 1515, 1508, 1480
6071, 7910, 7902, 7894, 7893, 1501, 1489, 1472, 1470
6072, 7927, 7907, 7902, 7910, 1521, 1497, 1489, 1501
6073, 7927, 7910, 7911, 7928, 1521, 1501, 1502, 1523
6074, 7929, 7928, 7911, 7912, 1524, 1523, 1502, 1503
6075, 7929, 7912, 7926, 7931, 1524, 1503, 1518, 1526
6076, 7930, 7931, 7926, 7925, 1525, 1526, 1518, 1517
6077, 7931, 7930, 7928, 7929, 1526, 1525, 1523, 1524
6078, 7894, 7933, 7932, 7892, 1472, 1532, 1530, 1465
6079, 7932, 7936, 7937, 7934, 1530, 1552, 1553, 1534
6080, 7933, 7938, 7936, 7932, 1532, 1554, 1552, 1530
6081, 7938, 7939, 7937, 7936, 1554, 1555, 1553, 1552
6082, 7894, 7898, 7938, 7933, 1472, 1483, 1554, 1532
6083, 7898, 7899, 7939, 7938, 1483, 1484, 1555, 1554
6084, 7934, 7937, 7940, 7935, 1534, 1553, 1556, 1538
6085, 7939, 7899, 7940, 7937, 1555, 1484, 1556, 1553
6086, 7904, 7943, 7941, 7903, 1492, 1569, 1567, 1490
6087, 7943, 7944, 7942, 7941, 1569, 1570, 1568, 1567
6088, 7908, 7945, 7943, 7904, 1498, 1571, 1569, 1492
6089, 7943, 7947, 7948, 7944, 1569, 1573, 1574, 1570
6090, 7945, 7949, 7947, 7943, 1571, 1575, 1573, 1569
6091, 7949, 7950, 7948, 7947, 1575, 1576, 1574, 1573
6092, 7946, 7950, 7949, 7945, 1572, 1576, 1575, 1571
6093, 7951, 7957, 7958, 7952, 1579, 1607, 1608, 1580
6094, 7903, 7959, 7958, 7957, 1490, 1609, 1608, 1607
6095, 7952, 7958, 7960, 7953, 1580, 1608, 1610, 1586
6096, 7959, 7961, 7960, 7958, 1609, 1611, 1610, 1608
6097, 7903, 7941, 7961, 7959, 1490, 1567, 1611, 1609
6098, 7953, 7960, 7962, 7954, 1586, 1610, 1612, 1590
6099, 7961, 7941, 7962, 7960, 1611, 1567, 1612, 1610
6100, 7941, 7942, 7954, 7962, 1567, 1568, 1590, 1612
6101, 7944, 7948, 7963, 7942, 1570, 1574, 1613, 1568
6102, 7948, 7965, 7964, 7963, 1574, 1615, 1614, 1613
6103, 7970, 7971, 7972, 7973, 1624, 1625, 1626, 1627
6104, 7974, 7975, 7971, 7970, 1628, 1629, 1625, 1624
6105, 7975, 7976, 7972, 7971, 1629, 1630, 1626, 1625
6106, 7973, 7972, 7977, 7978, 1627, 1626, 1632, 1633
6107, 7976, 7979, 7977, 7972, 1630, 1634, 1632, 1626
6108, 7963, 7980, 7975, 7974, 1613, 1635, 1629, 1628
6109, 7980, 7979, 7976, 7975, 1635, 1634, 1630, 1629
6110, 7964, 7979, 7980, 7963, 1614, 1634, 1635, 1613
6111, 7954, 7981, 7970, 7955, 1590, 1636, 1624, 1591
6112, 7942, 7963, 7981, 7954, 1568, 1613, 1636, 1590
6113, 7963, 7974, 7970, 7981, 1613, 1628, 1624, 1636
6114, 7955, 7970, 7973, 7956, 1591, 1624, 1627, 1599
6115, 7965, 7984, 7982, 7964, 1615, 1639, 1637, 1614
6116, 7984, 7985, 7983, 7982, 1639, 1640, 1638, 1637
6117, 7985, 7967, 7966, 7983, 1640, 1619, 1618, 1638
6118, 7948, 7986, 7984, 7965, 1574, 1641, 1639, 1615
6119, 7950, 7987, 7986, 7948, 1576, 1642, 1641, 1574
6120, 7987, 7988, 7984, 7986, 1642, 1643, 1639, 1641
6121, 7968, 7988, 7987, 7950, 1621, 1643, 1642, 1576
6122, 7988, 7989, 7985, 7984, 1643, 1644, 1640, 1639
6123, 7990, 7991, 7906, 7905, 1645, 1646, 1495, 1494
6124, 7990, 7905, 7907, 7993, 1645, 1494, 1497, 1648
6125, 7993, 7992, 7991, 7990, 1648, 1647, 1646, 1645
6126, 7991, 7994, 7908, 7906, 1646, 1649, 1498, 1495
6127, 7992, 7995, 7994, 7991, 1647, 1650, 1649, 1646
6128, 7996, 7993, 7907, 7927, 1651, 1648, 1497, 1521
6129, 7996, 7927, 7928, 7998, 1651, 1521, 1523, 1653
6130, 7998, 7997, 7993, 7996, 1653, 1652, 1648, 1651
6131, 7998, 7928, 7930, 8000, 1653, 1523, 1525, 1655
6132, 8001, 8002, 7997, 7998, 1656, 1657, 1652, 1653
6133, 8001, 7998, 8000, 8004, 1656, 1653, 1655, 1659
6134, 8003, 8004, 8000, 7999, 1658, 1659, 1655, 1654
6135, 8004, 8003, 8002, 8001, 1659, 1658, 1657, 1656
6136, 8005, 8006, 7992, 7993, 1664, 1665, 1647, 1648
6137, 8005, 7993, 7997, 8002, 1664, 1648, 1652, 1657
6138, 8002, 8007, 8006, 8005, 1657, 1666, 1665, 1664
6139, 8006, 8008, 7995, 7992, 1665, 1667, 1650, 1647
6140, 8007, 8009, 8008, 8006, 1666, 1668, 1667, 1665
6141, 8003, 8010, 8007, 8002, 1658, 1669, 1666, 1657
6142, 8010, 8011, 8009, 8007, 1669, 1670, 1668, 1666
6143, 7994, 8012, 7945, 7908, 1649, 1671, 1571, 1498
6144, 8012, 8013, 7946, 7945, 1671, 1672, 1572, 1571
6145, 7995, 8013, 8012, 7994, 1650, 1672, 1671, 1649
6146, 8013, 8015, 7950, 7946, 1672, 1674, 1576, 1572
6147, 8015, 8016, 7968, 7950, 1674, 1675, 1621, 1576
6148, 8014, 8016, 8015, 8013, 1673, 1675, 1674, 1672
6149, 8008, 8019, 8013, 7995, 1667, 1678, 1672, 1650
6150, 8019, 8020, 8014, 8013, 1678, 1679, 1673, 1672
6151, 8009, 8020, 8019, 8008, 1668, 1679, 1678, 1667
6152, 8011, 8021, 8020, 8009, 1670, 1680, 1679, 1668
6153, 8020, 8022, 8016, 8014, 1679, 1681, 1675, 1673
6154, 8022, 8023, 8018, 8016, 1681, 1682, 1677, 1675
6155, 8023, 8021, 8017, 8018, 1682, 1680, 1676, 1677
6156, 8021, 8023, 8022, 8020, 1680, 1682, 1681, 1679
6157, 8016, 8024, 7988, 7968, 1675, 1683, 1643, 1621
6158, 8024, 8025, 7989, 7988, 1683, 1684, 1644, 1643
6159, 8025, 8018, 7969, 7989, 1684, 1677, 1623, 1644
6160, 8018, 8025, 8024, 8016, 1677, 1684, 1683, 1675
6161, 8026, 8027, 8028, 8029, 1685, 1686, 1687, 1688
6162, 8030, 8026, 8029, 8031, 1689, 1685, 1688, 1691
6163, 8029, 8028, 8032, 8033, 1688, 1687, 1692, 1693
6164, 8031, 8029, 8033, 8035, 1691, 1688, 1693, 1695
6165, 8034, 8035, 8033, 8032, 1694, 1695, 1693, 1692
6166, 8030, 8031, 8035, 8037, 1689, 1691, 1695, 1697
6167, 8036, 8037, 8035, 8034, 1696, 1697, 1695, 1694
6168, 8037, 8036, 7750, 8030, 1697, 1696, 1177, 1689
6169, 8038, 8039, 7745, 8030, 1698, 1699, 1170, 1689
6170, 7751, 7749, 8039, 8038, 1178, 1176, 1699, 1698
6171, 7751, 8038, 8030, 7750, 1178, 1698, 1689, 1177
6172, 7749, 7744, 7745, 8039, 1176, 1169, 1170, 1699
6173, 8026, 7743, 7742, 8027, 1685, 1168, 1167, 1686
6174, 8030, 7745, 7743, 8026, 1689, 1170, 1168, 1685
6175, 7753, 7750, 8036, 8042, 1180, 1177, 1696, 1702
6176, 8041, 8042, 8036, 8040, 1701, 1702, 1696, 1700
6177, 7754, 7753, 8042, 8043, 1181, 1180, 1702, 1703
6178, 7760, 7754, 8043, 8045, 1190, 1181, 1703, 1705
6179, 8044, 8045, 8043, 8042, 1704, 1705, 1703, 1702
6180, 8045, 8044, 7759, 7760, 1705, 1704, 1189, 1190
6181, 8042, 8041, 8047, 8048, 1702, 1701, 1707, 1708
6182, 8044, 8042, 8048, 8050, 1704, 1702, 1708, 1710
6183, 8049, 8050, 8048, 8047, 1709, 1710, 1708, 1707
6184, 8050, 8049, 8046, 8044, 1710, 1709, 1706, 1704
6185, 8053, 8052, 8054, 8055, 1728, 1727, 1735, 1736
6186, 8028, 8051, 8053, 8032, 1687, 1716, 1728, 1692
6187, 8032, 8053, 8055, 8058, 1692, 1728, 1736, 1741
6188, 8034, 8032, 8058, 8036, 1694, 1692, 1741, 1696
6189, 8040, 8036, 8058, 8055, 1700, 1696, 1741, 1736
6190, 8041, 8040, 8060, 8047, 1701, 1700, 1745, 1707
6191, 8061, 8047, 8060, 8059, 1746, 1707, 1745, 1744
6192, 8063, 8061, 8059, 8062, 1748, 1746, 1744, 1747
6193, 8064, 8049, 8047, 8061, 1751, 1709, 1707, 1746
6194, 8065, 8064, 8061, 8063, 1752, 1751, 1746, 1748
6195, 8066, 8055, 8054, 8067, 1753, 1736, 1735, 1754
6196, 8060, 8040, 8055, 8066, 1745, 1700, 1736, 1753
6197, 8060, 8066, 8067, 8068, 1745, 1753, 1754, 1755
6198, 8067, 8054, 8056, 8069, 1754, 1735, 1738, 1756
6199, 8068, 8067, 8069, 8070, 1755, 1754, 1756, 1757
6200, 8060, 8068, 8070, 8059, 1745, 1755, 1757, 1744
6201, 8069, 8056, 8057, 8071, 1756, 1738, 1740, 1758
6202, 8070, 8069, 8071, 8059, 1757, 1756, 1758, 1744
6203, 8072, 8073, 7591, 7590, 1759, 1760, 844, 843
6204, 7591, 8076, 8075, 8074, 844, 1774, 1773, 1772
6205, 8076, 8078, 8077, 8075, 1774, 1782, 1781, 1773
6206, 8078, 8073, 8079, 8077, 1782, 1760, 1788, 1781
6207, 7591, 8073, 8078, 8076, 844, 1760, 1782, 1774
6208, 7570, 7591, 8074, 7575, 792, 844, 1772, 814
6209, 8073, 8081, 8080, 8079, 1760, 1794, 1793, 1788
6210, 8086, 8083, 8082, 8085, 1807, 1804, 1802, 1806
6211, 8086, 8085, 7590, 8087, 1807, 1806, 843, 1808
6212, 8087, 8084, 8083, 8086, 1808, 1805, 1804, 1807
6213, 8089, 8088, 8082, 8083, 1814, 1813, 1802, 1804
6214, 8092, 8091, 8088, 8089, 1819, 1818, 1813, 1814
6215, 8093, 8088, 8091, 8072, 1820, 1813, 1818, 1759
6216, 8093, 8072, 7590, 8085, 1820, 1759, 843, 1806
6217, 8085, 8082, 8088, 8093, 1806, 1802, 1813, 1820
6218, 7585, 8087, 7590, 7569, 838, 1808, 843, 791
6219, 7583, 8084, 8087, 7585, 836, 1805, 1808, 838
6220, 8094, 8081, 8073, 8072, 1821, 1794, 1760, 1759
6221, 8080, 8099, 8098, 8079, 1793, 1844, 1843, 1788
6222, 8100, 8095, 8080, 8081, 1845, 1822, 1793, 1794
6223, 8095, 8102, 8101, 8080, 1822, 1847, 1846, 1793
6224, 8102, 8063, 8062, 8101, 1847, 1748, 1747, 1846
6225, 7819, 8104, 8100, 7816, 1353, 1849, 1845, 1348
6226, 8104, 8103, 8095, 8100, 1849, 1848, 1822, 1845
6227, 8103, 8105, 8102, 8095, 1848, 1850, 1847, 1822
6228, 8105, 8065, 8063, 8102, 1850, 1752, 1748, 1847
6229, 7834, 8106, 8094, 7799, 1368, 1851, 1821, 1309
6230, 8106, 8100, 8081, 8094, 1851, 1845, 1794, 1821
6231, 8100, 8106, 7834, 7816, 1845, 1851, 1368, 1348
6232, 8110, 8111, 8108, 8107, 1855, 1856, 1853, 1852
6233, 8110, 8107, 8109, 8113, 1855, 1852, 1854, 1858
6234, 8113, 8112, 8111, 8110, 1858, 1857, 1856, 1855
6235, 8114, 7834, 7799, 8109, 1859, 1368, 1309, 1854
6236, 8115, 8116, 7834, 8114, 1860, 1861, 1368, 1859
6237, 8115, 8114, 8109, 8107, 1860, 1859, 1854, 1852
6238, 8107, 8108, 8116, 8115, 1852, 1853, 1861, 1860
6239, 8111, 7825, 7822, 8108, 1856, 1359, 1356, 1853
6240, 8116, 7830, 7821, 7834, 1861, 1364, 1355, 1368
6241, 8108, 7822, 7830, 8116, 1853, 1356, 1364, 1861
6242, 8092, 8118, 8117, 8091, 1819, 1863, 1862, 1818
6243, 8118, 8113, 8109, 8117, 1863, 1858, 1854, 1862
6244, 8090, 8113, 8118, 8092, 1816, 1858, 1863, 1819
6245, 8091, 8117, 8094, 8072, 1818, 1862, 1821, 1759
6246, 8117, 8109, 7799, 8094, 1862, 1854, 1309, 1821
6247, 8119, 8097, 8096, 8120, 1864, 1841, 1840, 1865
6248, 8062, 8119, 8120, 8121, 1747, 1864, 1865, 1866
6249, 8120, 8096, 8098, 8122, 1865, 1840, 1843, 1867
6250, 8121, 8120, 8122, 8123, 1866, 1865, 1867, 1868
6251, 8099, 8123, 8122, 8098, 1844, 1868, 1867, 1843
6252, 8062, 8121, 8123, 8101, 1747, 1866, 1868, 1846
6253, 8080, 8101, 8123, 8099, 1793, 1846, 1868, 1844
6254, 7847, 7759, 8044, 8125, 1381, 1189, 1704, 1870
6255, 8124, 8125, 8044, 8046, 1869, 1870, 1704, 1706
6256, 8125, 8124, 7849, 7847, 1870, 1869, 1383, 1381
6257, 8124, 8046, 8049, 8129, 1869, 1706, 1709, 1874
6258, 8128, 8129, 8049, 8064, 1873, 1874, 1709, 1751
6259, 8129, 8128, 8126, 8124, 1874, 1873, 1871, 1869
6260, 8130, 8128, 8064, 8065, 1875, 1873, 1751, 1752
6261, 8128, 8130, 8127, 8126, 1873, 1875, 1872, 1871
6262, 7852, 7849, 8124, 8132, 1386, 1383, 1869, 1877
6263, 8131, 8132, 8124, 8126, 1876, 1877, 1869, 1871
6264, 8132, 8131, 7859, 7852, 1877, 1876, 1397, 1386
6265, 8133, 8131, 8126, 8127, 1878, 1876, 1871, 1872
6266, 8131, 8133, 7860, 7859, 1876, 1878, 1398, 1397
6267, 7867, 8135, 8104, 7819, 1405, 1880, 1849, 1353
6268, 8135, 8134, 8103, 8104, 1880, 1879, 1848, 1849
6269, 8134, 8135, 7867, 7866, 1879, 1880, 1405, 1404
6270, 8134, 8136, 8105, 8103, 1879, 1881, 1850, 1848
6271, 8136, 8130, 8065, 8105, 1881, 1875, 1752, 1850
6272, 8130, 8136, 8134, 8127, 1875, 1881, 1879, 1872
6273, 7870, 8137, 8134, 7866, 1408, 1882, 1879, 1404
6274, 8137, 8133, 8127, 8134, 1882, 1878, 1872, 1879
6275, 8133, 8137, 7870, 7860, 1878, 1882, 1408, 1398
6276, 8138, 8139, 7694, 7693, 1883, 1884, 1096, 1095
6277, 8140, 8143, 8144, 8141, 1892, 1896, 1897, 1893
6278, 7694, 8145, 8144, 8143, 1096, 1898, 1897, 1896
6279, 8145, 8142, 8141, 8144, 1898, 1895, 1893, 1897
6280, 8142, 8147, 8146, 8141, 1895, 1904, 1903, 1893
6281, 8147, 8150, 8149, 8146, 1904, 1909, 1908, 1903
6282, 8142, 8145, 8151, 8147, 1895, 1898, 1910, 1904
6283, 7694, 8139, 8151, 8145, 1096, 1884, 1910, 1898
6284, 8139, 8150, 8147, 8151, 1884, 1909, 1904, 1910
6285, 8140, 7680, 7682, 8143, 1892, 1059, 1062, 1896
6286, 7672, 7694, 8143, 7682, 1038, 1096, 1896, 1062
6287, 8153, 8152, 7693, 8154, 1923, 1922, 1095, 1924
6288, 8156, 8155, 8152, 8153, 1932, 1931, 1922, 1923
6289, 8157, 8138, 8155, 8156, 1938, 1883, 1931, 1932
6290, 8155, 8138, 7693, 8152, 1931, 1883, 1095, 1922
6291, 7692, 8154, 7693, 7671, 1094, 1924, 1095, 1037
6292, 8157, 8159, 8158, 8138, 1938, 1944, 1943, 1883
6293, 8158, 8160, 8139, 8138, 1943, 1945, 1884, 1883
6294, 7926, 7897, 8160, 8162, 1518, 1482, 1945, 1947
6295, 8161, 8162, 8160, 8158, 1946, 1947, 1945, 1943
6296, 8162, 8161, 7925, 7926, 1947, 1946, 1517, 1518
6297, 8163, 8164, 8165, 8166, 1948, 1949, 1950, 1951
6298, 8167, 8168, 8165, 8164, 1952, 1953, 1950, 1949
6299, 8168, 8169, 8166, 8165, 1953, 1954, 1951, 1950
6300, 8169, 8168, 8170, 8171, 1954, 1953, 1955, 1956
6301, 8167, 8172, 8170, 8168, 1952, 1957, 1955, 1953
6302, 8172, 7926, 8171, 8170, 1957, 1518, 1956, 1955
6303, 7926, 8172, 8167, 7897, 1518, 1957, 1952, 1482
6304, 8169, 7918, 7915, 8166, 1954, 1509, 1506, 1951
6305, 7918, 8169, 8171, 7920, 1509, 1954, 1956, 1511
6306, 7926, 7912, 7920, 8171, 1518, 1503, 1511, 1956
6307, 8164, 8148, 8149, 8173, 1949, 1905, 1908, 1958
6308, 8167, 8164, 8173, 8174, 1952, 1949, 1958, 1959
6309, 8150, 8174, 8173, 8149, 1909, 1959, 1958, 1908
6310, 7897, 8167, 8174, 8160, 1482, 1952, 1959, 1945
6311, 8139, 8160, 8174, 8150, 1884, 1945, 1959, 1909
6312, 8175, 8161, 8158, 8159, 1960, 1946, 1943, 1944
6313, 7930, 7925, 8161, 8177, 1525, 1517, 1946, 1962
6314, 8176, 8177, 8161, 8175, 1961, 1962, 1946, 1960
6315, 8179, 8159, 8157, 8178, 1983, 1944, 1938, 1982
6316, 8175, 8159, 8183, 8185, 1960, 1944, 1990, 1992
6317, 8184, 8185, 8183, 8182, 1991, 1992, 1990, 1989
6318, 8187, 8184, 8182, 8186, 1994, 1991, 1989, 1993
6319, 8176, 8175, 8185, 8189, 1961, 1960, 1992, 1998
6320, 8188, 8189, 8185, 8184, 1997, 1998, 1992, 1991
6321, 8190, 8188, 8184, 8187, 1999, 1997, 1991, 1994
6322, 8191, 8178, 8180, 8192, 2000, 1982, 1984, 2001
6323, 8193, 8179, 8178, 8191, 2002, 1983, 1982, 2000
6324, 8193, 8191, 8192, 8194, 2002, 2000, 2001, 2003
6325, 8183, 8159, 8179, 8193, 1990, 1944, 1983, 2002
6326, 8183, 8193, 8194, 8182, 1990, 2002, 2003, 1989
6327, 8192, 8180, 8181, 8195, 2001, 1984, 1986, 2004
6328, 8194, 8192, 8195, 8182, 2003, 2001, 2004, 1989
6329, 8199, 8200, 8204, 8203, 2025, 2027, 2034, 2032
6330, 7967, 8206, 8205, 7966, 1619, 2036, 2035, 1618
6331, 8206, 8197, 8196, 8205, 2036, 2006, 2005, 2035
6332, 8197, 8208, 8207, 8196, 2006, 2038, 2037, 2005
6333, 8208, 8187, 8186, 8207, 2038, 1994, 1993, 2037
6334, 8211, 8190, 8187, 8208, 2041, 1999, 1994, 2038
6335, 8197, 8206, 8212, 8208, 2006, 2036, 2042, 2038
6336, 8210, 8213, 8212, 8206, 2040, 2043, 2042, 2036
6337, 8213, 8211, 8208, 8212, 2043, 2041, 2038, 2042
6338, 8211, 8213, 8210, 8209, 2041, 2043, 2040, 2039
6339, 8214, 8215, 8216, 8217, 2044, 2045, 2046, 2047
6340, 8218, 8219, 8216, 8215, 2048, 2049, 2046, 2045
6341, 8217, 8216, 8220, 8221, 2047, 2046, 2051, 2052
6342, 8219, 8222, 8220, 8216, 2049, 2053, 2051, 2046
6343, 8222, 8223, 8221, 8220, 2053, 2054, 2052, 2051
6344, 8218, 8224, 8222, 8219, 2048, 2055, 2053, 2049
6345, 8224, 8205, 8223, 8222, 2055, 2035, 2054, 2053
6346, 8205, 8224, 8218, 7966, 2035, 2055, 2048, 1618
6347, 8198, 8217, 8221, 8200, 2019, 2047, 2052, 2027
6348, 8200, 8221, 8225, 8204, 2027, 2052, 2056, 2034
6349, 8223, 8205, 8225, 8221, 2054, 2035, 2056, 2052
6350, 8205, 8196, 8204, 8225, 2035, 2005, 2034, 2056
6351, 8214, 7978, 7977, 8215, 2044, 1633, 1632, 2045
6352, 7979, 8218, 8215, 7977, 1634, 2048, 2045, 1632
6353, 8218, 7979, 8226, 8227, 2048, 1634, 2057, 2058
6354, 7966, 8218, 8227, 7983, 1618, 2048, 2058, 1638
6355, 7964, 7982, 8226, 7979, 1614, 1637, 2057, 1634
6356, 7982, 7983, 8227, 8226, 1637, 1638, 2058, 2057
6357, 7967, 7985, 8228, 8206, 1619, 1640, 2059, 2036
6358, 7989, 8229, 8228, 7985, 1644, 2060, 2059, 1640
6359, 8229, 8210, 8206, 8228, 2060, 2040, 2036, 2059
6360, 8210, 8229, 7989, 7969, 2040, 2060, 1644, 1623
6361, 8230, 8202, 8201, 8231, 2061, 2030, 2029, 2062
6362, 8186, 8230, 8231, 8232, 1993, 2061, 2062, 2063
6363, 8231, 8201, 8203, 8233, 2062, 2029, 2032, 2064
6364, 8232, 8231, 8233, 8234, 2063, 2062, 2064, 2065
6365, 8186, 8232, 8234, 8207, 1993, 2063, 2065, 2037
6366, 8233, 8203, 8204, 8235, 2064, 2032, 2034, 2066
6367, 8234, 8233, 8235, 8207, 2065, 2064, 2066, 2037
6368, 8196, 8207, 8235, 8204, 2005, 2037, 2066, 2034
6369, 8000, 7930, 8177, 8237, 1655, 1525, 1962, 2068
6370, 8236, 8237, 8177, 8176, 2067, 2068, 1962, 1961
6371, 8237, 8236, 7999, 8000, 2068, 2067, 1654, 1655
6372, 8236, 8176, 8189, 8241, 2067, 1961, 1998, 2072
6373, 8240, 8241, 8189, 8188, 2071, 2072, 1998, 1997
6374, 8241, 8240, 8238, 8236, 2072, 2071, 2069, 2067
6375, 8242, 8240, 8188, 8190, 2073, 2071, 1997, 1999
6376, 8240, 8242, 8239, 8238, 2071, 2073, 2070, 2069
6377, 8003, 7999, 8236, 8244, 1658, 1654, 2067, 2075
6378, 8243, 8244, 8236, 8238, 2074, 2075, 2067, 2069
6379, 8244, 8243, 8010, 8003, 2075, 2074, 1669, 1658
6380, 8245, 8243, 8238, 8239, 2076, 2074, 2069, 2070
6381, 8243, 8245, 8011, 8010, 2074, 2076, 1670, 1669
6382, 8018, 8247, 8210, 7969, 1677, 2078, 2040, 1623
6383, 8247, 8246, 8209, 8210, 2078, 2077, 2039, 2040
6384, 8246, 8247, 8018, 8017, 2077, 2078, 1677, 1676
6385, 8246, 8248, 8211, 8209, 2077, 2079, 2041, 2039
6386, 8248, 8242, 8190, 8211, 2079, 2073, 1999, 2041
6387, 8242, 8248, 8246, 8239, 2073, 2079, 2077, 2070
6388, 8021, 8249, 8246, 8017, 1680, 2080, 2077, 1676
6389, 8249, 8245, 8239, 8246, 2080, 2076, 2070, 2077
6390, 8245, 8249, 8021, 8011, 2076, 2080, 1680, 1670
6391, 8250, 8251, 7253, 7239, 2081, 2082, 143, 114
6392, 8250, 7239, 7244, 8253, 2081, 114, 119, 2084
6393, 8253, 7244, 7517, 8255, 2084, 119, 689, 2086
6394, 8255, 8254, 8252, 8253, 2086, 2085, 2083, 2084
6395, 8256, 8257, 8250, 8253, 2087, 2088, 2081, 2084
6396, 8258, 8259, 8257, 8256, 2089, 2090, 2088, 2087
6397, 8258, 8256, 8253, 8252, 2089, 2087, 2084, 2083
6398, 8259, 8251, 8250, 8257, 2090, 2082, 2081, 2088
6399, 8260, 8261, 7251, 7250, 2091, 2092, 136, 132
6400, 8260, 7250, 7247, 8262, 2091, 132, 129, 2094
6401, 8263, 8262, 7247, 7248, 2095, 2094, 129, 130
6402, 8263, 7248, 7253, 8251, 2095, 130, 143, 2082
6403, 8262, 8264, 8265, 8266, 2094, 2098, 2099, 2100
6404, 8268, 8269, 8265, 8264, 2102, 2103, 2099, 2098
6405, 8269, 8270, 8266, 8265, 2103, 2104, 2100, 2099
6406, 8270, 8269, 8268, 8267, 2104, 2103, 2102, 2101
6407, 8261, 8271, 7252, 7251, 2092, 2105, 139, 136
6408, 8271, 8272, 7264, 7252, 2105, 2107, 173, 139
6409, 8276, 8277, 8274, 8273, 2115, 2116, 2113, 2112
6410, 8277, 8278, 8271, 8274, 2116, 2117, 2105, 2113
6411, 8278, 8277, 8276, 8275, 2117, 2116, 2115, 2114
6412, 8283, 8284, 8280, 8279, 2123, 2124, 2120, 2119
6413, 8284, 8285, 8281, 8280, 2124, 2125, 2121, 2120
6414, 8285, 8284, 8283, 8282, 2125, 2124, 2123, 2122
6415, 8285, 8276, 8273, 8281, 2125, 2115, 2112, 2121
6416, 8280, 8281, 8287, 8261, 2120, 2121, 2136, 2092
6417, 8281, 8273, 8274, 8287, 2121, 2112, 2113, 2136
6418, 8287, 8274, 8271, 8261, 2136, 2113, 2105, 2092
6419, 8266, 8288, 8260, 8262, 2100, 2137, 2091, 2094
6420, 8288, 8280, 8261, 8260, 2137, 2120, 2092, 2091
6421, 8280, 8288, 8266, 8279, 2120, 2137, 2100, 2119
6422, 8270, 8283, 8279, 8266, 2104, 2123, 2119, 2100
6423, 8283, 8270, 8267, 8286, 2123, 2104, 2101, 2132
6424, 8278, 8290, 8272, 8271, 2117, 2140, 2107, 2105
6425, 8290, 8278, 8275, 8289, 2140, 2117, 2114, 2139
6426, 8294, 8295, 8292, 8291, 2153, 2154, 2150, 2149
6427, 8296, 8295, 8294, 8293, 2155, 2154, 2153, 2152
6428, 8299, 8300, 8259, 8258, 2161, 2162, 2090, 2089
6429, 8300, 8294, 8291, 8259, 2162, 2153, 2149, 2090
6430, 8294, 8300, 8299, 8298, 2153, 2162, 2161, 2160
6431, 8293, 8294, 8298, 8301, 2152, 2153, 2160, 2164
6432, 8303, 8299, 8258, 8252, 2169, 2161, 2089, 2083
6433, 8298, 8299, 8303, 8302, 2160, 2161, 2169, 2168
6434, 8259, 8291, 8292, 8251, 2090, 2149, 2150, 2082
6435, 8268, 8264, 8304, 8305, 2102, 2098, 2173, 2174
6436, 8295, 8305, 8304, 8292, 2154, 2174, 2173, 2150
6437, 8305, 8295, 8296, 8268, 2174, 2154, 2155, 2102
6438, 8264, 8262, 8263, 8304, 2098, 2094, 2095, 2173
6439, 8292, 8304, 8263, 8251, 2150, 2173, 2095, 2082
6440, 8268, 8296, 8297, 8267, 2102, 2155, 2158, 2101
6441, 8272, 8306, 7265, 7264, 2107, 2213, 174, 173
6442, 8306, 8307, 7267, 7265, 2213, 2215, 178, 174
6443, 8290, 8308, 8306, 8272, 2140, 2219, 2213, 2107
6444, 8308, 8309, 8307, 8306, 2219, 2221, 2215, 2213
6445, 8307, 7292, 7268, 7267, 2215, 230, 181, 178
6446, 8309, 7294, 7292, 8307, 2221, 238, 230, 2215
6447, 8310, 8311, 8308, 8290, 2234, 2235, 2219, 2140
6448, 8289, 8275, 8312, 8313, 2139, 2114, 2239, 2241
6449, 8313, 8312, 8315, 8316, 2241, 2239, 2245, 2247
6450, 8315, 8314, 8317, 8318, 2245, 2244, 2250, 2251
6451, 8316, 8315, 8318, 8319, 2247, 2245, 2251, 2253
6452, 8289, 8313, 8316, 8319, 2139, 2241, 2247, 2253
6453, 8290, 8289, 8319, 8310, 2140, 2139, 2253, 2234
6454, 8311, 8320, 8309, 8308, 2235, 2255, 2221, 2219
6455, 8321, 8322, 8311, 8310, 2260, 2261, 2235, 2234
6456, 8322, 8323, 8320, 8311, 2261, 2264, 2255, 2235
6457, 8320, 7296, 7294, 8309, 2255, 246, 238, 2221
6458, 8323, 7777, 7296, 8320, 2264, 1243, 246, 2255
6459, 7284, 8324, 8325, 7558, 216, 2303, 2304, 780
6460, 7281, 8326, 8324, 7284, 213, 2305, 2303, 216
6461, 8326, 8327, 8325, 8324, 2305, 2306, 2304, 2303
6462, 8327, 7557, 7558, 8325, 2306, 779, 780, 2304
6463, 7282, 8328, 8326, 7281, 214, 2307, 2305, 213
6464, 7301, 8329, 8328, 7282, 258, 2308, 2307, 214
6465, 8329, 8330, 8326, 8328, 2308, 2309, 2305, 2307
6466, 8326, 8331, 8332, 8327, 2305, 2311, 2312, 2306
6467, 8330, 8333, 8331, 8326, 2309, 2313, 2311, 2305
6468, 8331, 8335, 8336, 8332, 2311, 2315, 2316, 2312
6469, 8333, 8337, 8335, 8331, 2313, 2317, 2315, 2311
6470, 8337, 8338, 8336, 8335, 2317, 2318, 2316, 2315
6471, 8338, 8334, 8332, 8336, 2318, 2314, 2312, 2316
6472, 7300, 8339, 8329, 7301, 257, 2319, 2308, 258
6473, 7299, 8340, 8339, 7300, 256, 2320, 2319, 257
6474, 8340, 8341, 8329, 8339, 2320, 2321, 2308, 2319
6475, 7303, 8342, 8340, 7299, 265, 2322, 2320, 256
6476, 8340, 8343, 8344, 8341, 2320, 2324, 2325, 2321
6477, 8342, 8345, 8343, 8340, 2322, 2326, 2324, 2320
6478, 8343, 8346, 8347, 8344, 2324, 2328, 2329, 2325
6479, 8345, 8348, 8346, 8343, 2326, 2330, 2328, 2324
6480, 8346, 8349, 8350, 8347, 2328, 2332, 2333, 2329
6481, 8348, 8351, 8349, 8346, 2330, 2334, 2332, 2328
6482, 8329, 8352, 8333, 8330, 2308, 2337, 2313, 2309
6483, 8341, 8344, 8352, 8329, 2321, 2325, 2337, 2308
6484, 8352, 8353, 8337, 8333, 2337, 2345, 2317, 2313
6485, 8344, 8347, 8353, 8352, 2325, 2329, 2345, 2337
6486, 8353, 8354, 8355, 8337, 2345, 2347, 2348, 2317
6487, 8347, 8350, 8354, 8353, 2329, 2333, 2347, 2345
6488, 8337, 8355, 8356, 8338, 2317, 2348, 2351, 2318
6489, 7305, 8357, 8342, 7303, 270, 2357, 2322, 265
6490, 8357, 8358, 8345, 8342, 2357, 2359, 2326, 2322
6491, 7306, 8359, 8357, 7305, 271, 2361, 2357, 270
6492, 7789, 8360, 8359, 7306, 1284, 2362, 2361, 271
6493, 8360, 8361, 8357, 8359, 2362, 2363, 2357, 2361
6494, 7790, 8361, 8360, 7789, 1285, 2363, 2362, 1284
6495, 8361, 8362, 8358, 8357, 2363, 2365, 2359, 2357
6496, 8358, 8363, 8348, 8345, 2359, 2367, 2330, 2326
6497, 8363, 8364, 8351, 8348, 2367, 2369, 2334, 2330
6498, 8362, 8365, 8363, 8358, 2365, 2371, 2367, 2359
6499, 8365, 8366, 8364, 8363, 2371, 2373, 2369, 2367
6500, 8349, 8367, 8368, 8350, 2332, 2391, 2392, 2333
6501, 8351, 8369, 8367, 8349, 2334, 2393, 2391, 2332
6502, 8369, 8370, 8368, 8367, 2393, 2394, 2392, 2391
6503, 8354, 8371, 8372, 8355, 2347, 2395, 2396, 2348
6504, 8350, 8368, 8371, 8354, 2333, 2392, 2395, 2347
6505, 8371, 8373, 8374, 8372, 2395, 2398, 2399, 2396
6506, 8368, 8375, 8373, 8371, 2392, 2400, 2398, 2395
6507, 8375, 8376, 8374, 8373, 2400, 2401, 2399, 2398
6508, 8355, 8372, 8377, 8356, 2348, 2396, 2402, 2351
6509, 8372, 8374, 8378, 8377, 2396, 2399, 2404, 2402
6510, 8370, 8380, 8375, 8368, 2394, 2407, 2400, 2392
6511, 8374, 8381, 8382, 8378, 2399, 2411, 2412, 2404
6512, 8376, 8383, 8381, 8374, 2401, 2413, 2411, 2399
6513, 8384, 8379, 8378, 8382, 2414, 2405, 2404, 2412
6514, 8381, 8385, 8386, 8382, 2411, 2415, 2416, 2412
6515, 8383, 8387, 8385, 8381, 2413, 2417, 2415, 2411
6516, 8388, 8384, 8382, 8386, 2418, 2414, 2412, 2416
6517, 8375, 8389, 8383, 8376, 2400, 2419, 2413, 2401
6518, 8380, 8390, 8389, 8375, 2407, 2420, 2419, 2400
6519, 8389, 8391, 8387, 8383, 2419, 2422, 2417, 2413
6520, 8390, 8392, 8391, 8389, 2420, 2423, 2422, 2419
6521, 8364, 8393, 8369, 8351, 2369, 2427, 2393, 2334
6522, 8369, 8394, 8380, 8370, 2393, 2429, 2407, 2394
6523, 8393, 8395, 8394, 8369, 2427, 2430, 2429, 2393
6524, 8366, 8396, 8393, 8364, 2373, 2432, 2427, 2369
6525, 8396, 8397, 8395, 8393, 2432, 2434, 2430, 2427
6526, 8394, 8398, 8390, 8380, 2429, 2436, 2420, 2407
6527, 8395, 8399, 8398, 8394, 2430, 2437, 2436, 2429
6528, 8398, 8400, 8392, 8390, 2436, 2439, 2423, 2420
6529, 8399, 8401, 8400, 8398, 2437, 2440, 2439, 2436
6530, 8397, 8402, 8399, 8395, 2434, 2442, 2437, 2430
6531, 8402, 8403, 8401, 8399, 2442, 2444, 2440, 2437
6532, 8385, 8404, 8405, 8386, 2415, 2462, 2463, 2416
6533, 8387, 8406, 8404, 8385, 2417, 2464, 2462, 2415
6534, 8407, 8388, 8386, 8405, 2465, 2418, 2416, 2463
6535, 8404, 8408, 8409, 8405, 2462, 2466, 2467, 2463
6536, 8406, 8410, 8408, 8404, 2464, 2468, 2466, 2462
6537, 8411, 8407, 8405, 8409, 2469, 2465, 2463, 2467
6538, 8391, 8412, 8406, 8387, 2422, 2470, 2464, 2417
6539, 8392, 8413, 8412, 8391, 2423, 2471, 2470, 2422
6540, 8412, 8414, 8410, 8406, 2470, 2473, 2468, 2464
6541, 8413, 8415, 8414, 8412, 2471, 2474, 2473, 2470
6542, 8408, 8416, 8417, 8409, 2466, 2478, 2479, 2467
6543, 8410, 8418, 8416, 8408, 2468, 2480, 2478, 2466
6544, 8419, 8411, 8409, 8417, 2481, 2469, 2467, 2479
6545, 8416, 8420, 8421, 8417, 2478, 2482, 2483, 2479
6546, 8418, 8422, 8420, 8416, 2480, 2484, 2482, 2478
6547, 8423, 8419, 8417, 8421, 2485, 2481, 2479, 2483
6548, 8414, 8424, 8418, 8410, 2473, 2486, 2480, 2468
6549, 8415, 8425, 8424, 8414, 2474, 2487, 2486, 2473
6550, 8424, 8426, 8422, 8418, 2486, 2489, 2484, 2480
6551, 8425, 8427, 8426, 8424, 2487, 2490, 2489, 2486
6552, 8400, 8428, 8413, 8392, 2439, 2494, 2471, 2423
6553, 8401, 8429, 8428, 8400, 2440, 2495, 2494, 2439
6554, 8428, 8430, 8415, 8413, 2494, 2497, 2474, 2471
6555, 8429, 8431, 8430, 8428, 2495, 2498, 2497, 2494
6556, 8403, 8432, 8429, 8401, 2444, 2500, 2495, 2440
6557, 8432, 8433, 8431, 8429, 2500, 2502, 2498, 2495
6558, 8430, 8434, 8425, 8415, 2497, 2504, 2487, 2474
6559, 8431, 8435, 8434, 8430, 2498, 2505, 2504, 2497
6560, 8434, 8436, 8427, 8425, 2504, 2507, 2490, 2487
6561, 8435, 8437, 8436, 8434, 2505, 2508, 2507, 2504
6562, 8433, 8438, 8435, 8431, 2502, 2510, 2505, 2498
6563, 8438, 8439, 8437, 8435, 2510, 2512, 2508, 2505
6564, 8420, 8440, 8441, 8421, 2482, 2530, 2531, 2483
6565, 8422, 8442, 8440, 8420, 2484, 2532, 2530, 2482
6566, 8442, 8443, 8441, 8440, 2532, 2533, 2531, 2530
6567, 8443, 8423, 8421, 8441, 2533, 2485, 2483, 2531
6568, 8426, 8444, 8442, 8422, 2489, 2534, 2532, 2484
6569, 8427, 8445, 8444, 8426, 2490, 2535, 2534, 2489
6570, 8444, 8446, 8447, 8442, 2534, 2537, 2538, 2532
6571, 8445, 8448, 8446, 8444, 2535, 2539, 2537, 2534
6572, 8442, 8447, 8449, 8443, 2532, 2538, 2542, 2533
6573, 8450, 8451, 8452, 8453, 2544, 2545, 2546, 2547
6574, 8454, 8455, 8451, 8450, 2548, 2549, 2545, 2544
6575, 8454, 8450, 8453, 8457, 2548, 2544, 2547, 2551
6576, 8456, 8457, 8453, 8452, 2550, 2551, 2547, 2546
6577, 8446, 8458, 8454, 8447, 2537, 2552, 2548, 2538
6578, 8448, 8459, 8458, 8446, 2539, 2553, 2552, 2537
6579, 8458, 8460, 8455, 8454, 2552, 2555, 2549, 2548
6580, 8459, 8461, 8460, 8458, 2553, 2556, 2555, 2552
6581, 8447, 8454, 8457, 8449, 2538, 2548, 2551, 2542
6582, 8436, 8462, 8445, 8427, 2507, 2560, 2535, 2490
6583, 8437, 8463, 8462, 8436, 2508, 2561, 2560, 2507
6584, 8462, 8464, 8448, 8445, 2560, 2563, 2539, 2535
6585, 8463, 8465, 8464, 8462, 2561, 2564, 2563, 2560
6586, 8439, 8466, 8463, 8437, 2512, 2566, 2561, 2508
6587, 8466, 8467, 8465, 8463, 2566, 2568, 2564, 2561
6588, 8464, 8468, 8459, 8448, 2563, 2570, 2553, 2539
6589, 8465, 8469, 8468, 8464, 2564, 2571, 2570, 2563
6590, 8468, 8470, 8461, 8459, 2570, 2573, 2556, 2553
6591, 8469, 8471, 8470, 8468, 2571, 2574, 2573, 2570
6592, 8467, 8472, 8469, 8465, 2568, 2576, 2571, 2564
6593, 8472, 8473, 8471, 8469, 2576, 2578, 2574, 2571
6594, 8451, 8474, 8475, 8452, 2545, 2596, 2597, 2546
6595, 8455, 8476, 8474, 8451, 2549, 2598, 2596, 2545
6596, 8477, 8456, 8452, 8475, 2599, 2550, 2546, 2597
6597, 8474, 8478, 8479, 8475, 2596, 2600, 2601, 2597
6598, 8476, 8480, 8478, 8474, 2598, 2602, 2600, 2596
6599, 8481, 8477, 8475, 8479, 2603, 2599, 2597, 2601
6600, 8460, 8482, 8476, 8455, 2555, 2604, 2598, 2549
6601, 8461, 8483, 8482, 8460, 2556, 2605, 2604, 2555
6602, 8482, 8484, 8480, 8476, 2604, 2607, 2602, 2598
6603, 8483, 8485, 8484, 8482, 2605, 2608, 2607, 2604
6604, 8478, 8486, 8487, 8479, 2600, 2612, 2613, 2601
6605, 8480, 8488, 8486, 8478, 2602, 2614, 2612, 2600
6606, 8489, 8481, 8479, 8487, 2615, 2603, 2601, 2613
6607, 8486, 8490, 8491, 8487, 2612, 2616, 2617, 2613
6608, 8488, 8492, 8490, 8486, 2614, 2618, 2616, 2612
6609, 8493, 8489, 8487, 8491, 2619, 2615, 2613, 2617
6610, 8484, 8494, 8488, 8480, 2607, 2620, 2614, 2602
6611, 8485, 8495, 8494, 8484, 2608, 2621, 2620, 2607
6612, 8494, 8496, 8492, 8488, 2620, 2623, 2618, 2614
6613, 8495, 8497, 8496, 8494, 2621, 2624, 2623, 2620
6614, 8470, 8498, 8483, 8461, 2573, 2628, 2605, 2556
6615, 8471, 8499, 8498, 8470, 2574, 2629, 2628, 2573
6616, 8498, 8500, 8485, 8483, 2628, 2631, 2608, 2605
6617, 8499, 8501, 8500, 8498, 2629, 2632, 2631, 2628
6618, 8473, 8502, 8499, 8471, 2578, 2634, 2629, 2574
6619, 8502, 8503, 8501, 8499, 2634, 2636, 2632, 2629
6620, 8500, 8504, 8495, 8485, 2631, 2638, 2621, 2608
6621, 8501, 8505, 8504, 8500, 2632, 2639, 2638, 2631
6622, 8504, 8506, 8497, 8495, 2638, 2641, 2624, 2621
6623, 8505, 8507, 8506, 8504, 2639, 2642, 2641, 2638
6624, 8503, 8508, 8505, 8501, 2636, 2644, 2639, 2632
6625, 8508, 8509, 8507, 8505, 2644, 2646, 2642, 2639
6626, 8490, 8510, 8511, 8491, 2616, 2664, 2665, 2617
6627, 8492, 8512, 8510, 8490, 2618, 2666, 2664, 2616
6628, 8513, 8493, 8491, 8511, 2667, 2619, 2617, 2665
6629, 8510, 8514, 8515, 8511, 2664, 2668, 2669, 2665
6630, 8512, 8516, 8514, 8510, 2666, 2670, 2668, 2664
6631, 8517, 8513, 8511, 8515, 2671, 2667, 2665, 2669
6632, 8496, 8518, 8512, 8492, 2623, 2672, 2666, 2618
6633, 8497, 8519, 8518, 8496, 2624, 2673, 2672, 2623
6634, 8518, 8520, 8516, 8512, 2672, 2675, 2670, 2666
6635, 8519, 8521, 8520, 8518, 2673, 2676, 2675, 2672
6636, 8514, 8522, 8523, 8515, 2668, 2680, 2681, 2669
6637, 8516, 8524, 8522, 8514, 2670, 2682, 2680, 2668
6638, 8525, 8517, 8515, 8523, 2683, 2671, 2669, 2681
6639, 8522, 8526, 8527, 8523, 2680, 2684, 2685, 2681
6640, 8524, 8528, 8526, 8522, 2682, 2686, 2684, 2680
6641, 8529, 8525, 8523, 8527, 2687, 2683, 2681, 2685
6642, 8520, 8530, 8524, 8516, 2675, 2688, 2682, 2670
6643, 8521, 8531, 8530, 8520, 2676, 2689, 2688, 2675
6644, 8530, 8532, 8528, 8524, 2688, 2691, 2686, 2682
6645, 8531, 8533, 8532, 8530, 2689, 2692, 2691, 2688
6646, 8506, 8534, 8519, 8497, 2641, 2696, 2673, 2624
6647, 8507, 8535, 8534, 8506, 2642, 2697, 2696, 2641
6648, 8534, 8536, 8521, 8519, 2696, 2699, 2676, 2673
6649, 8535, 8537, 8536, 8534, 2697, 2700, 2699, 2696
6650, 8509, 8538, 8535, 8507, 2646, 2702, 2697, 2642
6651, 8538, 8539, 8537, 8535, 2702, 2704, 2700, 2697
6652, 8536, 8540, 8531, 8521, 2699, 2706, 2689, 2676
6653, 8537, 8541, 8540, 8536, 2700, 2707, 2706, 2699
6654, 8540, 8542, 8533, 8531, 2706, 2709, 2692, 2689
6655, 8541, 8543, 8542, 8540, 2707, 2710, 2709, 2706
6656, 8539, 8544, 8541, 8537, 2704, 2712, 2707, 2700
6657, 8544, 8545, 8543, 8541, 2712, 2714, 2710, 2707
6658, 8546, 8547, 8548, 8549, 2732, 2733, 2734, 2735
6659, 8550, 8551, 8547, 8546, 2736, 2737, 2733, 2732
6660, 8550, 8546, 8549, 8552, 2736, 2732, 2735, 2739
6661, 8553, 8549, 8554, 8555, 2740, 2735, 2741, 2742
6662, 8556, 8552, 8549, 8553, 2743, 2739, 2735, 2740
6663, 8556, 8553, 8555, 8558, 2743, 2740, 2742, 2745
6664, 8557, 8558, 8555, 8554, 2744, 2745, 2742, 2741
6665, 8549, 8548, 8559, 8554, 2735, 2734, 2746, 2741
6666, 8560, 7417, 7637, 8561, 2748, 501, 972, 2749
6667, 8548, 7418, 7417, 8560, 2734, 502, 501, 2748
6668, 8548, 8560, 8561, 8559, 2734, 2748, 2749, 2746
6669, 7640, 8559, 8561, 7637, 975, 2746, 2749, 972
6670, 8547, 7419, 7418, 8548, 2733, 503, 502, 2734
6671, 8551, 7432, 7419, 8547, 2737, 540, 503, 2733
6672, 8562, 8563, 8564, 8565, 2750, 2751, 2752, 2753
6673, 8566, 8567, 8563, 8562, 2754, 2755, 2751, 2750
6674, 8566, 8562, 8565, 8568, 2754, 2750, 2753, 2757
6675, 8563, 8569, 8570, 8564, 2751, 2758, 2759, 2752
6676, 8567, 8571, 8569, 8563, 2755, 2760, 2758, 2751
6677, 8572, 8573, 8574, 8575, 2762, 2763, 2764, 2765
6678, 8576, 8565, 8573, 8572, 2766, 2753, 2763, 2762
6679, 8576, 8572, 8575, 8577, 2766, 2762, 2765, 2768
6680, 8526, 8575, 8578, 8527, 2684, 2765, 2769, 2685
6681, 8528, 8577, 8575, 8526, 2686, 2768, 2765, 2684
6682, 8579, 8529, 8527, 8578, 2770, 2687, 2685, 2769
6683, 8575, 8574, 8580, 8578, 2765, 2764, 2771, 2769
6684, 8532, 8576, 8577, 8528, 2691, 2766, 2768, 2686
6685, 8533, 8581, 8576, 8532, 2692, 2773, 2766, 2691
6686, 8581, 8568, 8565, 8576, 2773, 2757, 2753, 2766
6687, 8573, 8582, 8583, 8574, 2763, 2778, 2779, 2764
6688, 8565, 8564, 8582, 8573, 2753, 2752, 2778, 2763
6689, 8582, 8584, 8556, 8583, 2778, 2781, 2743, 2779
6690, 8564, 8570, 8584, 8582, 2752, 2759, 2781, 2778
6691, 8574, 8583, 8585, 8580, 2764, 2779, 2783, 2771
6692, 8583, 8556, 8558, 8585, 2779, 2743, 2745, 2783
6693, 8542, 8586, 8581, 8533, 2709, 2790, 2773, 2692
6694, 8543, 8587, 8586, 8542, 2710, 2791, 2790, 2709
6695, 8586, 8566, 8568, 8581, 2790, 2754, 2757, 2773
6696, 8587, 8588, 8566, 8586, 2791, 2793, 2754, 2790
6697, 8545, 8589, 8587, 8543, 2714, 2795, 2791, 2710
6698, 8589, 8590, 8588, 8587, 2795, 2797, 2793, 2791
6699, 8588, 8591, 8567, 8566, 2793, 2799, 2755, 2754
6700, 8591, 8592, 8571, 8567, 2799, 2801, 2760, 2755
6701, 8590, 8593, 8591, 8588, 2797, 2803, 2799, 2793
6702, 8593, 8594, 8592, 8591, 2803, 2805, 2801, 2799
6703, 8569, 8595, 8596, 8570, 2758, 2823, 2824, 2759
6704, 8571, 8597, 8595, 8569, 2760, 2825, 2823, 2758
6705, 8595, 8598, 8599, 8596, 2823, 2827, 2828, 2824
6706, 8597, 8600, 8598, 8595, 2825, 2829, 2827, 2823
6707, 8601, 7431, 7432, 8551, 2831, 539, 540, 2737
6708, 8598, 7433, 7431, 8601, 2827, 542, 539, 2831
6709, 8598, 8601, 8551, 8599, 2827, 2831, 2737, 2828
6710, 8600, 7436, 7433, 8598, 2829, 551, 542, 2827
6711, 8584, 8550, 8552, 8556, 2781, 2736, 2739, 2743
6712, 8570, 8596, 8550, 8584, 2759, 2824, 2736, 2781
6713, 8596, 8599, 8551, 8550, 2824, 2828, 2737, 2736
6714, 8592, 8602, 8597, 8571, 2801, 2840, 2825, 2760
6715, 8602, 8603, 8600, 8597, 2840, 2842, 2829, 2825
6716, 8594, 8604, 8602, 8592, 2805, 2844, 2840, 2801
6717, 8604, 8605, 8603, 8602, 2844, 2846, 2842, 2840
6718, 8603, 7439, 7436, 8600, 2842, 557, 551, 2829
6719, 8605, 7876, 7439, 8603, 2846, 1416, 557, 2842
6720, 7446, 8606, 7403, 7447, 571, 2857, 486, 572
6721, 8606, 8607, 7402, 7403, 2857, 2860, 485, 486
6722, 7449, 8608, 8606, 7446, 584, 2866, 2857, 571
6723, 8608, 8609, 8607, 8606, 2866, 2868, 2860, 2857
6724, 8607, 8611, 7406, 7402, 2860, 2873, 489, 485
6725, 8611, 8612, 7462, 7406, 2873, 2876, 628, 489
6726, 8609, 8613, 8611, 8607, 2868, 2880, 2873, 2860
6727, 8610, 8614, 8613, 8609, 2869, 2881, 2880, 2868
6728, 7450, 8615, 8608, 7449, 591, 2941, 2866, 584
6729, 8615, 8616, 8609, 8608, 2941, 2943, 2868, 2866
6730, 8616, 8617, 8610, 8609, 2943, 2944, 2869, 2868
6731, 7889, 8618, 8615, 7450, 1446, 2947, 2941, 591
6732, 8618, 8619, 8616, 8615, 2947, 2949, 2943, 2941
6733, 8619, 8620, 8617, 8616, 2949, 2950, 2944, 2943
6734, 8621, 8622, 8623, 8624, 2953, 2954, 2955, 2956
6735, 8625, 8626, 8622, 8621, 2957, 2958, 2954, 2953
6736, 8626, 8627, 8623, 8622, 2958, 2959, 2955, 2954
6737, 8629, 8625, 8621, 8628, 2967, 2957, 2953, 2965
6738, 8632, 8629, 8628, 8631, 2971, 2967, 2965, 2969
6739, 8630, 8631, 8624, 8614, 2968, 2969, 2956, 2881
6740, 8628, 8621, 8624, 8631, 2965, 2953, 2956, 2969
6741, 8627, 8633, 8613, 8623, 2959, 2973, 2880, 2955
6742, 8633, 8612, 8611, 8613, 2973, 2876, 2873, 2880
6743, 8634, 8612, 8633, 8627, 2974, 2876, 2973, 2959
6744, 8624, 8623, 8613, 8614, 2956, 2955, 2880, 2881
6745, 8617, 8630, 8614, 8610, 2944, 2968, 2881, 2869
6746, 8620, 8635, 8630, 8617, 2950, 2978, 2968, 2944
6747, 8612, 8636, 7461, 7462, 2876, 3021, 627, 628
6748, 8636, 8637, 7465, 7461, 3021, 3024, 631, 627
6749, 8627, 8642, 8640, 8634, 2959, 3064, 3062, 2974
6750, 8642, 8645, 8643, 8640, 3064, 3068, 3066, 3062
6751, 8645, 8642, 8641, 8644, 3068, 3064, 3063, 3067
6752, 8648, 8646, 8647, 8649, 3071, 3069, 3070, 3072
6753, 8645, 8649, 8647, 8643, 3068, 3072, 3070, 3066
6754, 8649, 8645, 8644, 8648, 3072, 3068, 3067, 3071
6755, 8634, 8640, 8650, 8612, 2974, 3062, 3073, 2876
6756, 8643, 8647, 8636, 8651, 3066, 3070, 3021, 3074
6757, 8640, 8643, 8651, 8650, 3062, 3066, 3074, 3073
6758, 8650, 8651, 8636, 8612, 3073, 3074, 3021, 2876
6759, 8637, 8653, 7467, 7465, 3024, 3076, 633, 631
6760, 8653, 8654, 8652, 7467, 3076, 3077, 3075, 633
6761, 8638, 8654, 8653, 8637, 3025, 3077, 3076, 3024
6762, 8657, 8654, 8661, 8656, 3099, 3077, 3105, 3098
6763, 8654, 8660, 8659, 8661, 3077, 3104, 3103, 3105
6764, 8652, 8654, 8657, 8655, 3075, 3077, 3099, 3091
6765, 8654, 8638, 8658, 8660, 3077, 3025, 3102, 3104
6766, 8664, 8665, 8663, 8662, 3108, 3109, 3107, 3106
6767, 8660, 8667, 8666, 8659, 3104, 3111, 3110, 3103
6768, 8667, 8664, 8662, 8666, 3111, 3108, 3106, 3110
6769, 8664, 8667, 8660, 8658, 3108, 3111, 3104, 3102
6770, 8658, 8638, 8668, 8669, 3102, 3025, 3120, 3121
6771, 8664, 8658, 8669, 8671, 3108, 3102, 3121, 3123
6772, 8670, 8671, 8669, 8668, 3122, 3123, 3121, 3120
6773, 8671, 8670, 8665, 8664, 3123, 3122, 3109, 3108
6774, 8668, 8638, 8637, 8672, 3120, 3025, 3024, 3124
6775, 8647, 8672, 8637, 8636, 3070, 3124, 3024, 3021
6776, 8672, 8647, 8646, 8668, 3124, 3070, 3069, 3120
6777, 8648, 8670, 8668, 8646, 3071, 3122, 3120, 3069
6778, 8670, 8648, 8639, 8665, 3122, 3071, 3053, 3109
6779, 8677, 8676, 8675, 8674, 3132, 3131, 3130, 3129
6780, 8680, 8681, 8679, 8678, 3135, 3136, 3134, 3133
6781, 8681, 8676, 8673, 8679, 3136, 3131, 3127, 3134
6782, 8676, 8681, 8680, 8675, 3131, 3136, 3135, 3130
6783, 8676, 8684, 8682, 8673, 3131, 3139, 3137, 3127
6784, 8684, 8685, 8683, 8682, 3139, 3140, 3138, 3137
6785, 8685, 8684, 8676, 8677, 3140, 3139, 3131, 3132
6786, 8655, 8677, 8674, 8652, 3091, 3132, 3129, 3075
6787, 8685, 8657, 8656, 8683, 3140, 3099, 3098, 3138
6788, 8657, 8685, 8677, 8655, 3099, 3140, 3132, 3091
6789, 8674, 8675, 8687, 8686, 3129, 3130, 3144, 3143
6790, 8689, 8680, 8678, 8688, 3146, 3135, 3133, 3145
6791, 8675, 8680, 8689, 8687, 3130, 3135, 3146, 3144
6792, 8691, 8689, 8688, 8690, 3148, 3146, 3145, 3147
6793, 8687, 8689, 8691, 8686, 3144, 3146, 3148, 3143
6794, 8695, 8690, 8694, 8698, 3152, 3147, 3151, 3155
6795, 8696, 8697, 8693, 8692, 3153, 3154, 3150, 3149
6796, 8697, 8698, 8694, 8693, 3154, 3155, 3151, 3150
6797, 8698, 8697, 8696, 8695, 3155, 3154, 3153, 3152
6798, 8255, 7517, 7514, 8700, 2086, 689, 686, 3157
6799, 8699, 8700, 7514, 7528, 3156, 3157, 686, 706
6800, 8701, 8702, 8255, 8700, 3158, 3159, 2086, 3157
6801, 8703, 8704, 8702, 8701, 3160, 3161, 3159, 3158
6802, 8703, 8701, 8700, 8699, 3160, 3158, 3157, 3156
6803, 8704, 8254, 8255, 8702, 3161, 2085, 2086, 3159
6804, 8699, 7528, 7530, 8706, 3156, 706, 719, 3165
6805, 8705, 8706, 7530, 7529, 3164, 3165, 719, 718
6806, 8708, 8709, 8254, 8704, 3170, 3171, 2085, 3161
6807, 8710, 8709, 8708, 8707, 3172, 3171, 3170, 3169
6808, 8713, 8714, 8703, 8712, 3181, 3182, 3160, 3180
6809, 8714, 8708, 8704, 8703, 3182, 3170, 3161, 3160
6810, 8707, 8708, 8714, 8713, 3169, 3170, 3182, 3181
6811, 8711, 8707, 8713, 8715, 3175, 3169, 3181, 3184
6812, 8718, 8713, 8712, 8716, 3190, 3181, 3180, 3188
6813, 8715, 8713, 8718, 8717, 3184, 3181, 3190, 3189
6814, 8712, 8703, 8699, 8716, 3180, 3160, 3156, 3188
6815, 8709, 8303, 8252, 8254, 3171, 2169, 2083, 2085
6816, 8303, 8709, 8710, 8302, 2169, 3171, 3172, 2168
6817, 8705, 7529, 7531, 8721, 3164, 718, 725, 3230
6818, 8720, 8721, 7531, 7533, 3229, 3230, 725, 728
6819, 8722, 8723, 8724, 8705, 3231, 3232, 3233, 3164
6820, 8725, 8726, 8723, 8722, 3234, 3235, 3232, 3231
6821, 8726, 8727, 8724, 8723, 3235, 3236, 3233, 3232
6822, 8728, 8727, 8726, 8725, 3237, 3236, 3235, 3234
6823, 8727, 8730, 8729, 8724, 3236, 3239, 3238, 3233
6824, 8730, 8718, 8716, 8729, 3239, 3190, 3188, 3238
6825, 8718, 8730, 8727, 8717, 3190, 3239, 3236, 3189
6826, 8724, 8729, 8706, 8705, 3233, 3238, 3165, 3164
6827, 8729, 8716, 8699, 8706, 3238, 3188, 3156, 3165
6828, 8717, 8727, 8728, 8719, 3189, 3236, 3237, 3191
6829, 8731, 8720, 7533, 7534, 3240, 3229, 728, 729
6830, 8732, 8731, 7534, 7546, 3241, 3240, 729, 764
6831, 8739, 8740, 8738, 8737, 3258, 3259, 3257, 3256
6832, 8740, 8735, 8733, 8738, 3259, 3246, 3243, 3257
6833, 8734, 8735, 8740, 8739, 3245, 3246, 3259, 3258
6834, 8742, 8739, 8737, 8741, 3261, 3258, 3256, 3260
6835, 8745, 8746, 8744, 8731, 3265, 3266, 3264, 3240
6836, 8746, 8742, 8741, 8744, 3266, 3261, 3260, 3264
6837, 8743, 8742, 8746, 8745, 3263, 3261, 3266, 3265
6838, 8737, 8738, 8720, 8747, 3256, 3257, 3229, 3267
6839, 8741, 8737, 8747, 8744, 3260, 3256, 3267, 3264
6840, 8744, 8747, 8720, 8731, 3264, 3267, 3229, 3240
6841, 8735, 8725, 8722, 8733, 3246, 3234, 3231, 3243
6842, 8736, 8728, 8725, 8735, 3247, 3237, 3234, 3246
6843, 8738, 8748, 8721, 8720, 3257, 3268, 3230, 3229
6844, 8748, 8722, 8705, 8721, 3268, 3231, 3164, 3230
6845, 8733, 8722, 8748, 8738, 3243, 3231, 3268, 3257
6846, 8750, 8745, 8731, 8732, 3274, 3265, 3240, 3241
6847, 8749, 8743, 8745, 8750, 3273, 3263, 3265, 3274
6848, 8751, 8732, 7546, 7545, 3283, 3241, 764, 763
6849, 8752, 8751, 7545, 7548, 3284, 3283, 763, 766
6850, 8753, 8750, 8732, 8751, 3285, 3274, 3241, 3283
6851, 8754, 8753, 8751, 8752, 3286, 3285, 3283, 3284
6852, 7571, 8752, 7548, 7549, 799, 3284, 766, 767
6853, 7573, 8754, 8752, 7571, 807, 3286, 3284, 799
6854, 8755, 8756, 8750, 8753, 3321, 3322, 3274, 3285
6855, 8749, 8758, 8757, 8743, 3273, 3328, 3327, 3263
6856, 8758, 8761, 8760, 8757, 3328, 3334, 3333, 3327
6857, 8759, 8760, 8763, 8762, 3329, 3333, 3338, 3335
6858, 8761, 8764, 8763, 8760, 3334, 3339, 3338, 3333
6859, 8749, 8764, 8761, 8758, 3273, 3339, 3334, 3328
6860, 8750, 8756, 8764, 8749, 3274, 3322, 3339, 3273
6861, 8765, 8755, 8753, 8754, 3340, 3321, 3285, 3286
6862, 8766, 8767, 8756, 8755, 3341, 3342, 3322, 3321
6863, 8768, 8766, 8755, 8765, 3343, 3341, 3321, 3340
6864, 7575, 8765, 8754, 7573, 814, 3340, 3286, 807
6865, 8074, 8768, 8765, 7575, 1772, 3343, 3340, 814
6866, 7557, 8327, 8769, 7556, 779, 2306, 3344, 778
6867, 8770, 7576, 7556, 8769, 3345, 821, 778, 3344
6868, 8327, 8332, 8771, 8769, 2306, 2312, 3346, 3344
6869, 8334, 8772, 8771, 8332, 2314, 3347, 3346, 2312
6870, 8772, 8770, 8769, 8771, 3347, 3345, 3344, 3346
6871, 8774, 8773, 8770, 8772, 3349, 3348, 3345, 3347
6872, 7576, 8770, 8775, 7580, 821, 3345, 3350, 825
6873, 8773, 8776, 8775, 8770, 3348, 3351, 3350, 3345
6874, 8776, 7579, 7580, 8775, 3351, 824, 825, 3350
6875, 8777, 7582, 7579, 8776, 3354, 831, 824, 3351
6876, 8773, 8774, 8778, 8776, 3348, 3349, 3355, 3351
6877, 8779, 8777, 8776, 8778, 3356, 3354, 3351, 3355
6878, 8334, 8338, 8780, 8772, 2314, 2318, 3357, 3347
6879, 8781, 8774, 8772, 8780, 3358, 3349, 3347, 3357
6880, 8338, 8356, 8782, 8780, 2318, 2351, 3359, 3357
6881, 8783, 8781, 8780, 8782, 3360, 3358, 3357, 3359
6882, 8774, 8781, 8785, 8778, 3349, 3358, 3363, 3355
6883, 8786, 8779, 8778, 8785, 3364, 3356, 3355, 3363
6884, 8781, 8783, 8787, 8785, 3358, 3360, 3365, 3363
6885, 8784, 8788, 8787, 8783, 3362, 3366, 3365, 3360
6886, 8788, 8786, 8785, 8787, 3366, 3364, 3363, 3365
6887, 8789, 7583, 7582, 8777, 3369, 836, 831, 3354
6888, 8790, 8789, 8777, 8779, 3370, 3369, 3354, 3356
6889, 8791, 8084, 7583, 8789, 3373, 1805, 836, 3369
6890, 8792, 8791, 8789, 8790, 3374, 3373, 3369, 3370
6891, 8793, 8790, 8779, 8786, 3377, 3370, 3356, 3364
6892, 8794, 8793, 8786, 8788, 3378, 3377, 3364, 3366
6893, 8795, 8792, 8790, 8793, 3381, 3374, 3370, 3377
6894, 8796, 8795, 8793, 8794, 3382, 3381, 3377, 3378
6895, 8356, 8377, 8797, 8782, 2351, 2402, 3383, 3359
6896, 8798, 8783, 8782, 8797, 3384, 3360, 3359, 3383
6897, 8377, 8378, 8799, 8797, 2402, 2404, 3385, 3383
6898, 8379, 8800, 8799, 8378, 2405, 3386, 3385, 2404
6899, 8800, 8798, 8797, 8799, 3386, 3384, 3383, 3385
6900, 8801, 8784, 8783, 8798, 3387, 3362, 3360, 3384
6901, 8802, 8801, 8798, 8800, 3388, 3387, 3384, 3386
6902, 8379, 8384, 8803, 8800, 2405, 2414, 3389, 3386
6903, 8804, 8802, 8800, 8803, 3390, 3388, 3386, 3389
6904, 8384, 8388, 8805, 8803, 2414, 2418, 3391, 3389
6905, 8806, 8804, 8803, 8805, 3392, 3390, 3389, 3391
6906, 8784, 8801, 8807, 8788, 3362, 3387, 3395, 3366
6907, 8808, 8794, 8788, 8807, 3396, 3378, 3366, 3395
6908, 8801, 8802, 8809, 8807, 3387, 3388, 3397, 3395
6909, 8810, 8808, 8807, 8809, 3398, 3396, 3395, 3397
6910, 8811, 8796, 8794, 8808, 3401, 3382, 3378, 3396
6911, 8812, 8811, 8808, 8810, 3402, 3401, 3396, 3398
6912, 8802, 8804, 8813, 8809, 3388, 3390, 3405, 3397
6913, 8814, 8810, 8809, 8813, 3406, 3398, 3397, 3405
6914, 8804, 8806, 8815, 8813, 3390, 3392, 3407, 3405
6915, 8816, 8814, 8813, 8815, 3408, 3406, 3405, 3407
6916, 8817, 8812, 8810, 8814, 3411, 3402, 3398, 3406
6917, 8818, 8817, 8814, 8816, 3412, 3411, 3406, 3408
6918, 8388, 8407, 8819, 8805, 2418, 2465, 3413, 3391
6919, 8820, 8806, 8805, 8819, 3414, 3392, 3391, 3413
6920, 8407, 8411, 8821, 8819, 2465, 2469, 3415, 3413
6921, 8822, 8820, 8819, 8821, 3416, 3414, 3413, 3415
6922, 8411, 8419, 8823, 8821, 2469, 2481, 3417, 3415
6923, 8824, 8822, 8821, 8823, 3418, 3416, 3415, 3417
6924, 8419, 8423, 8825, 8823, 2481, 2485, 3419, 3417
6925, 8826, 8824, 8823, 8825, 3420, 3418, 3417, 3419
6926, 8806, 8820, 8827, 8815, 3392, 3414, 3423, 3407
6927, 8828, 8816, 8815, 8827, 3424, 3408, 3407, 3423
6928, 8820, 8822, 8829, 8827, 3414, 3416, 3425, 3423
6929, 8830, 8828, 8827, 8829, 3426, 3424, 3423, 3425
6930, 8831, 8818, 8816, 8828, 3429, 3412, 3408, 3424
6931, 8832, 8831, 8828, 8830, 3430, 3429, 3424, 3426
6932, 8822, 8824, 8833, 8829, 3416, 3418, 3433, 3425
6933, 8834, 8830, 8829, 8833, 3434, 3426, 3425, 3433
6934, 8824, 8826, 8835, 8833, 3418, 3420, 3435, 3433
6935, 8836, 8834, 8833, 8835, 3436, 3434, 3433, 3435
6936, 8837, 8832, 8830, 8834, 3439, 3430, 3426, 3434
6937, 8838, 8837, 8834, 8836, 3440, 3439, 3434, 3436
6938, 8423, 8443, 8839, 8825, 2485, 2533, 3441, 3419
6939, 8840, 8826, 8825, 8839, 3442, 3420, 3419, 3441
6940, 8443, 8449, 8841, 8839, 2533, 2542, 3443, 3441
6941, 8842, 8840, 8839, 8841, 3444, 3442, 3441, 3443
6942, 8449, 8457, 8843, 8841, 2542, 2551, 3445, 3443
6943, 8844, 8842, 8841, 8843, 3446, 3444, 3443, 3445
6944, 8457, 8456, 8845, 8843, 2551, 2550, 3447, 3445
6945, 8846, 8844, 8843, 8845, 3448, 3446, 3445, 3447
6946, 8826, 8840, 8847, 8835, 3420, 3442, 3451, 3435
6947, 8848, 8836, 8835, 8847, 3452, 3436, 3435, 3451
6948, 8840, 8842, 8849, 8847, 3442, 3444, 3453, 3451
6949, 8850, 8848, 8847, 8849, 3454, 3452, 3451, 3453
6950, 8851, 8838, 8836, 8848, 3457, 3440, 3436, 3452
6951, 8852, 8851, 8848, 8850, 3458, 3457, 3452, 3454
6952, 8842, 8844, 8853, 8849, 3444, 3446, 3461, 3453
6953, 8854, 8850, 8849, 8853, 3462, 3454, 3453, 3461
6954, 8844, 8846, 8855, 8853, 3446, 3448, 3463, 3461
6955, 8856, 8854, 8853, 8855, 3464, 3462, 3461, 3463
6956, 8857, 8852, 8850, 8854, 3467, 3458, 3454, 3462
6957, 8858, 8857, 8854, 8856, 3468, 3467, 3462, 3464
6958, 8456, 8477, 8859, 8845, 2550, 2599, 3469, 3447
6959, 8860, 8846, 8845, 8859, 3470, 3448, 3447, 3469
6960, 8477, 8481, 8861, 8859, 2599, 2603, 3471, 3469
6961, 8862, 8860, 8859, 8861, 3472, 3470, 3469, 3471
6962, 8481, 8489, 8863, 8861, 2603, 2615, 3473, 3471
6963, 8864, 8862, 8861, 8863, 3474, 3472, 3471, 3473
6964, 8489, 8493, 8865, 8863, 2615, 2619, 3475, 3473
6965, 8866, 8864, 8863, 8865, 3476, 3474, 3473, 3475
6966, 8846, 8860, 8867, 8855, 3448, 3470, 3479, 3463
6967, 8868, 8856, 8855, 8867, 3480, 3464, 3463, 3479
6968, 8860, 8862, 8869, 8867, 3470, 3472, 3481, 3479
6969, 8870, 8868, 8867, 8869, 3482, 3480, 3479, 3481
6970, 8871, 8858, 8856, 8868, 3485, 3468, 3464, 3480
6971, 8872, 8871, 8868, 8870, 3486, 3485, 3480, 3482
6972, 8862, 8864, 8873, 8869, 3472, 3474, 3489, 3481
6973, 8874, 8870, 8869, 8873, 3490, 3482, 3481, 3489
6974, 8864, 8866, 8875, 8873, 3474, 3476, 3491, 3489
6975, 8876, 8874, 8873, 8875, 3492, 3490, 3489, 3491
6976, 8877, 8872, 8870, 8874, 3495, 3486, 3482, 3490
6977, 8878, 8877, 8874, 8876, 3496, 3495, 3490, 3492
6978, 8493, 8513, 8879, 8865, 2619, 2667, 3497, 3475
6979, 8880, 8866, 8865, 8879, 3498, 3476, 3475, 3497
6980, 8513, 8517, 8881, 8879, 2667, 2671, 3499, 3497
6981, 8882, 8880, 8879, 8881, 3500, 3498, 3497, 3499
6982, 8517, 8525, 8883, 8881, 2671, 2683, 3501, 3499
6983, 8884, 8882, 8881, 8883, 3502, 3500, 3499, 3501
6984, 8525, 8529, 8885, 8883, 2683, 2687, 3503, 3501
6985, 8886, 8884, 8883, 8885, 3504, 3502, 3501, 3503
6986, 8866, 8880, 8887, 8875, 3476, 3498, 3507, 3491
6987, 8888, 8876, 8875, 8887, 3508, 3492, 3491, 3507
6988, 8880, 8882, 8889, 8887, 3498, 3500, 3509, 3507
6989, 8890, 8888, 8887, 8889, 3510, 3508, 3507, 3509
6990, 8891, 8878, 8876, 8888, 3513, 3496, 3492, 3508
6991, 8892, 8891, 8888, 8890, 3514, 3513, 3508, 3510
6992, 8882, 8884, 8893, 8889, 3500, 3502, 3517, 3509
6993, 8894, 8890, 8889, 8893, 3518, 3510, 3509, 3517
6994, 8884, 8886, 8895, 8893, 3502, 3504, 3519, 3517
6995, 8896, 8894, 8893, 8895, 3520, 3518, 3517, 3519
6996, 8897, 8892, 8890, 8894, 3523, 3514, 3510, 3518
6997, 8898, 8897, 8894, 8896, 3524, 3523, 3518, 3520
6998, 8554, 8559, 8899, 8900, 2741, 2746, 3525, 3526
6999, 8557, 8554, 8900, 8902, 2744, 2741, 3526, 3528
7000, 8901, 8902, 8900, 8899, 3527, 3528, 3526, 3525
7001, 8559, 7640, 7639, 8899, 2746, 975, 974, 3525
7002, 7673, 8901, 8899, 7639, 1040, 3527, 3525, 974
7003, 8578, 8580, 8903, 8904, 2769, 2771, 3529, 3530
7004, 8579, 8578, 8904, 8906, 2770, 2769, 3530, 3532
7005, 8905, 8906, 8904, 8903, 3531, 3532, 3530, 3529
7006, 8529, 8579, 8906, 8885, 2687, 2770, 3532, 3503
7007, 8907, 8886, 8885, 8906, 3533, 3504, 3503, 3532
7008, 8908, 8907, 8906, 8905, 3534, 3533, 3532, 3531
7009, 8580, 8585, 8909, 8903, 2771, 2783, 3535, 3529
7010, 8910, 8905, 8903, 8909, 3536, 3531, 3529, 3535
7011, 8585, 8558, 8911, 8909, 2783, 2745, 3537, 3535
7012, 8912, 8910, 8909, 8911, 3538, 3536, 3535, 3537
7013, 8913, 8908, 8905, 8910, 3539, 3534, 3531, 3536
7014, 8910, 8912, 8914, 8915, 3536, 3538, 3541, 3542
7015, 8913, 8910, 8915, 8917, 3539, 3536, 3542, 3544
7016, 8916, 8917, 8915, 8914, 3543, 3544, 3542, 3541
7017, 8886, 8907, 8918, 8895, 3504, 3533, 3547, 3519
7018, 8919, 8896, 8895, 8918, 3548, 3520, 3519, 3547
7019, 8907, 8908, 8920, 8918, 3533, 3534, 3549, 3547
7020, 8921, 8919, 8918, 8920, 3550, 3548, 3547, 3549
7021, 8922, 8898, 8896, 8919, 3553, 3524, 3520, 3548
7022, 8923, 8922, 8919, 8921, 3554, 3553, 3548, 3550
7023, 8908, 8913, 8917, 8920, 3534, 3539, 3544, 3549
7024, 8924, 8921, 8920, 8917, 3557, 3550, 3549, 3544
7025, 8925, 8924, 8917, 8916, 3558, 3557, 3544, 3543
7026, 8926, 8923, 8921, 8924, 3561, 3554, 3550, 3557
7027, 8927, 8926, 8924, 8925, 3562, 3561, 3557, 3558
7028, 8558, 8557, 8902, 8911, 2745, 2744, 3528, 3537
7029, 8928, 8912, 8911, 8902, 3563, 3538, 3537, 3528
7030, 8929, 8928, 8902, 8901, 3564, 3563, 3528, 3527
7031, 8912, 8928, 8930, 8914, 3538, 3563, 3567, 3541
7032, 8931, 8916, 8914, 8930, 3568, 3543, 3541, 3567
7033, 8928, 8929, 8932, 8930, 3563, 3564, 3569, 3567
7034, 8933, 8931, 8930, 8932, 3570, 3568, 3567, 3569
7035, 8901, 7673, 7674, 8934, 3527, 1040, 1046, 3571
7036, 8929, 8901, 8934, 8932, 3564, 3527, 3571, 3569
7037, 7675, 8932, 8934, 7674, 1047, 3569, 3571, 1046
7038, 7678, 8933, 8932, 7675, 1054, 3570, 3569, 1047
7039, 8935, 8925, 8916, 8931, 3574, 3558, 3543, 3568
7040, 8936, 8935, 8931, 8933, 3575, 3574, 3568, 3570
7041, 8937, 8927, 8925, 8935, 3578, 3562, 3558, 3574
7042, 8938, 8937, 8935, 8936, 3579, 3578, 3574, 3575
7043, 7680, 8936, 8933, 7678, 1059, 3575, 3570, 1054
7044, 8140, 8938, 8936, 7680, 1892, 3579, 3575, 1059
7045, 8939, 7688, 7689, 7668, 3638, 1079, 1080, 1034
7046, 8940, 8939, 7668, 7667, 3639, 3638, 1034, 1033
7047, 8941, 7691, 7688, 8939, 3640, 1088, 1079, 3638
7048, 8942, 8940, 7667, 7670, 3641, 3639, 1033, 1036
7049, 8943, 8942, 7670, 7707, 3642, 3641, 1036, 1124
7050, 8949, 8950, 8940, 8948, 3666, 3667, 3639, 3665
7051, 8944, 8945, 8950, 8949, 3659, 3660, 3667, 3666
7052, 8952, 8949, 8948, 8951, 3669, 3666, 3665, 3668
7053, 8946, 8944, 8949, 8952, 3662, 3659, 3666, 3669
7054, 8953, 8952, 8951, 8942, 3670, 3669, 3668, 3641
7055, 8947, 8946, 8952, 8953, 3664, 3662, 3669, 3670
7056, 8951, 8948, 8940, 8942, 3668, 3665, 3639, 3641
7057, 8950, 8941, 8939, 8940, 3667, 3640, 3638, 3639
7058, 8945, 8954, 8941, 8950, 3660, 3674, 3640, 3667
7059, 8955, 7692, 7691, 8941, 3743, 1094, 1088, 3640
7060, 8957, 8956, 8954, 8945, 3747, 3746, 3674, 3660
7061, 8959, 8958, 8956, 8957, 3751, 3750, 3746, 3747
7062, 8961, 8960, 8958, 8959, 3755, 3754, 3750, 3751
7063, 8958, 8960, 8954, 8956, 3750, 3754, 3674, 3746
7064, 8960, 8955, 8941, 8954, 3754, 3743, 3640, 3674
7065, 8962, 8154, 7692, 8955, 3756, 1924, 1094, 3743
7066, 8963, 8943, 7707, 7706, 3759, 3642, 1124, 1123
7067, 8966, 8967, 7709, 8965, 3796, 3797, 1126, 3795
7068, 8967, 8963, 7706, 7709, 3797, 3759, 1123, 1126
7069, 8974, 8975, 8973, 8972, 3808, 3809, 3807, 3806
7070, 8977, 8974, 8972, 8976, 3811, 3808, 3806, 3810
7071, 8969, 8968, 8974, 8977, 3803, 3800, 3808, 3811
7072, 8979, 8977, 8976, 8978, 3813, 3811, 3810, 3812
7073, 8979, 8978, 8970, 8971, 3813, 3812, 3804, 3805
7074, 8971, 8969, 8977, 8979, 3805, 3803, 3811, 3813
7075, 8972, 8973, 8943, 8980, 3806, 3807, 3642, 3814
7076, 8978, 8976, 8981, 8963, 3812, 3810, 3815, 3759
7077, 8976, 8972, 8980, 8981, 3810, 3806, 3814, 3815
7078, 8981, 8980, 8943, 8963, 3815, 3814, 3642, 3759
7079, 8982, 8953, 8942, 8943, 3816, 3670, 3641, 3642
7080, 8982, 8943, 8973, 8975, 3816, 3642, 3807, 3809
7081, 8975, 8947, 8953, 8982, 3809, 3664, 3670, 3816
7082, 8991, 8989, 8988, 8990, 3846, 3844, 3843, 3845
7083, 8991, 8990, 8985, 8986, 3846, 3845, 3838, 3839
7084, 8985, 8990, 8984, 8983, 3838, 3845, 3829, 3828
7085, 8990, 8966, 8965, 8984, 3845, 3796, 3795, 3829
7086, 8988, 8987, 8966, 8990, 3843, 3840, 3796, 3845
7087, 8994, 8995, 8993, 8992, 3849, 3850, 3848, 3847
7088, 8996, 8992, 8987, 8988, 3851, 3847, 3840, 3843
7089, 8997, 8994, 8992, 8996, 3852, 3849, 3847, 3851
7090, 8997, 8996, 8988, 8989, 3852, 3851, 3843, 3844
7091, 8998, 8999, 8966, 8987, 3861, 3862, 3796, 3840
7092, 9000, 9001, 8999, 8998, 3863, 3864, 3862, 3861
7093, 9000, 8998, 8987, 8992, 3863, 3861, 3840, 3847
7094, 8992, 8993, 9001, 9000, 3847, 3848, 3864, 3863
7095, 9001, 8971, 8970, 8999, 3864, 3805, 3804, 3862
7096, 8993, 8964, 8971, 9001, 3848, 3786, 3805, 3864
7097, 9002, 8978, 8963, 8967, 3865, 3812, 3759, 3797
7098, 9002, 8967, 8966, 8999, 3865, 3797, 3796, 3862
7099, 8999, 8970, 8978, 9002, 3862, 3804, 3812, 3865
7100, 9007, 9003, 9006, 9010, 3870, 3866, 3869, 3873
7101, 9008, 9009, 9005, 9004, 3871, 3872, 3868, 3867
7102, 9009, 9010, 9006, 9005, 3872, 3873, 3869, 3868
7103, 9010, 9009, 9008, 9007, 3873, 3872, 3871, 3870
7104, 9011, 9012, 9013, 9014, 3874, 3875, 3876, 3877
7105, 9016, 9011, 9014, 9017, 3882, 3874, 3877, 3883
7106, 9018, 9015, 9011, 9016, 3884, 3878, 3874, 3882
7107, 9018, 9016, 9017, 9019, 3884, 3882, 3883, 3885
7108, 9020, 9021, 9012, 9011, 3886, 3887, 3875, 3874
7109, 9022, 9023, 9021, 9020, 3888, 3889, 3887, 3886
7110, 9022, 9020, 9011, 9015, 3888, 3886, 3874, 3878
7111, 9012, 8983, 8984, 9013, 3875, 3828, 3829, 3876
7112, 9021, 8985, 8983, 9012, 3887, 3838, 3828, 3875
7113, 9023, 8986, 8985, 9021, 3889, 3839, 3838, 3887
7114, 9014, 9013, 9024, 9025, 3877, 3876, 3890, 3891
7115, 9017, 9014, 9025, 9026, 3883, 3877, 3891, 3894
7116, 9019, 9017, 9026, 9027, 3885, 3883, 3894, 3895
7117, 9026, 9025, 9024, 9028, 3894, 3891, 3890, 3896
7118, 9027, 9026, 9028, 9004, 3895, 3894, 3896, 3867
7119, 9029, 9030, 9031, 9032, 3897, 3898, 3899, 3900
7120, 9033, 9034, 9030, 9029, 3901, 3902, 3898, 3897
7121, 9033, 9029, 9032, 9036, 3901, 3897, 3900, 3904
7122, 9035, 9036, 9032, 9031, 3903, 3904, 3900, 3899
7123, 7737, 7767, 9035, 9031, 1161, 1209, 3903, 3899
7124, 7737, 9031, 9030, 7742, 1161, 3899, 3898, 1167
7125, 9030, 9034, 9037, 9038, 3898, 3902, 3905, 3906
7126, 7742, 9030, 9038, 8027, 1167, 3898, 3906, 1686
7127, 9039, 9040, 9041, 9042, 3907, 3908, 3909, 3910
7128, 9043, 9044, 9040, 9039, 3911, 3912, 3908, 3907
7129, 9043, 9039, 9042, 9046, 3911, 3907, 3910, 3914
7130, 9046, 9045, 9044, 9043, 3914, 3913, 3912, 3911
7131, 7762, 7765, 9048, 9047, 1195, 1201, 3916, 3915
7132, 7762, 9047, 9045, 7763, 1195, 3915, 3913, 1196
7133, 7764, 7763, 9045, 9049, 1197, 1196, 3913, 3918
7134, 7764, 9049, 9035, 7767, 1197, 3918, 3903, 1209
7135, 7765, 7766, 9050, 9048, 1201, 1205, 3921, 3916
7136, 9051, 9052, 9053, 9054, 3923, 3924, 3925, 3926
7137, 9055, 9050, 9052, 9051, 3927, 3921, 3924, 3923
7138, 9055, 9051, 9054, 9056, 3927, 3923, 3926, 3929
7139, 9057, 9058, 9059, 9060, 3930, 3931, 3932, 3933
7140, 9061, 9062, 9058, 9057, 3934, 3935, 3931, 3930
7141, 9062, 9056, 9054, 9058, 3935, 3929, 3926, 3931
7142, 9048, 9064, 9062, 9061, 3916, 3948, 3935, 3934
7143, 9064, 9055, 9056, 9062, 3948, 3927, 3929, 3935
7144, 9048, 9050, 9055, 9064, 3916, 3921, 3927, 3948
7145, 9065, 9057, 9060, 9040, 3949, 3930, 3933, 3908
7146, 9066, 9061, 9057, 9065, 3950, 3934, 3930, 3949
7147, 9066, 9065, 9040, 9044, 3950, 3949, 3908, 3912
7148, 9047, 9048, 9061, 9066, 3915, 3916, 3934, 3950
7149, 9047, 9066, 9044, 9045, 3915, 3950, 3912, 3913
7150, 9040, 9060, 9063, 9041, 3908, 3933, 3943, 3909
7151, 9052, 9067, 9068, 9053, 3924, 3951, 3952, 3925
7152, 9050, 9069, 9067, 9052, 3921, 3953, 3951, 3924
7153, 7766, 7805, 9069, 9050, 1205, 1317, 3953, 3921
7154, 9070, 9071, 9072, 9073, 3962, 3963, 3964, 3965
7155, 9074, 9070, 9073, 9075, 3966, 3962, 3965, 3969
7156, 9077, 9073, 9078, 9079, 3973, 3965, 3974, 3975
7157, 9036, 9075, 9073, 9077, 3904, 3969, 3965, 3973
7158, 9036, 9077, 9079, 9033, 3904, 3973, 3975, 3901
7159, 9073, 9072, 9080, 9078, 3965, 3964, 3977, 3974
7160, 9079, 9078, 9081, 9082, 3975, 3974, 3981, 3982
7161, 9033, 9079, 9082, 9034, 3901, 3975, 3982, 3902
7162, 9035, 9074, 9075, 9036, 3903, 3966, 3969, 3904
7163, 9070, 9083, 9042, 9071, 3962, 3987, 3910, 3963
7164, 9074, 9084, 9083, 9070, 3966, 3988, 3987, 3962
7165, 9084, 9046, 9042, 9083, 3988, 3914, 3910, 3987
7166, 9035, 9049, 9084, 9074, 3903, 3918, 3988, 3966
7167, 9049, 9045, 9046, 9084, 3918, 3913, 3914, 3988
7168, 9071, 9042, 9041, 9076, 3963, 3910, 3909, 3970
7169, 9067, 9085, 8322, 8321, 3951, 4030, 2261, 2260
7170, 9086, 9087, 9088, 9089, 4032, 4033, 4034, 4035
7171, 9090, 9086, 9089, 9091, 4036, 4032, 4035, 4039
7172, 9091, 9089, 9092, 9093, 4039, 4035, 4044, 4046
7173, 9093, 9092, 9053, 9068, 4046, 4044, 3925, 3952
7174, 9090, 9091, 9093, 9068, 4036, 4039, 4046, 3952
7175, 8321, 9090, 9068, 9067, 2260, 4036, 3952, 3951
7176, 9086, 8318, 8317, 9087, 4032, 2251, 2250, 4033
7177, 9090, 8319, 8318, 9086, 4036, 2253, 2251, 4032
7178, 8321, 8310, 8319, 9090, 2260, 2234, 2253, 4036
7179, 9085, 9094, 8323, 8322, 4030, 4049, 2264, 2261
7180, 9069, 9095, 9085, 9067, 3953, 4053, 4030, 3951
7181, 9095, 9096, 9094, 9085, 4053, 4055, 4049, 4030
7182, 9094, 7778, 7777, 8323, 4049, 1246, 1243, 2264
7183, 9096, 7780, 7778, 9094, 4055, 1258, 1246, 4049
7184, 7805, 7806, 9095, 9069, 1317, 1318, 4053, 3953
7185, 7806, 7807, 9096, 9095, 1318, 1324, 4055, 4053
7186, 7807, 7782, 7780, 9096, 1324, 1266, 1258, 4055
7187, 7787, 9097, 8361, 7790, 1282, 4090, 2363, 1285
7188, 9097, 9098, 8362, 8361, 4090, 4092, 2365, 2363
7189, 7792, 9099, 9097, 7787, 1296, 4094, 4090, 1282
7190, 9099, 9101, 9098, 9097, 4094, 4096, 4092, 4090
7191, 9100, 9102, 9101, 9099, 4095, 4097, 4096, 4094
7192, 9098, 9103, 8365, 8362, 4092, 4098, 2371, 2365
7193, 9103, 9104, 8366, 8365, 4098, 4100, 2373, 2371
7194, 9101, 9105, 9103, 9098, 4096, 4102, 4098, 4092
7195, 9102, 9106, 9105, 9101, 4097, 4103, 4102, 4096
7196, 9105, 9107, 9104, 9103, 4102, 4104, 4100, 4098
7197, 9106, 9108, 9107, 9105, 4103, 4105, 4104, 4102
7198, 7795, 9109, 9099, 7792, 1302, 4122, 4094, 1296
7199, 9109, 9110, 9100, 9099, 4122, 4123, 4095, 4094
7200, 7794, 9110, 9109, 7795, 1301, 4123, 4122, 1302
7201, 9110, 9112, 9102, 9100, 4123, 4125, 4097, 4095
7202, 9111, 9113, 9112, 9110, 4124, 4126, 4125, 4123
7203, 7827, 9115, 9110, 7794, 1361, 4129, 4123, 1301
7204, 9115, 9116, 9111, 9110, 4129, 4130, 4124, 4123
7205, 7828, 9116, 9115, 7827, 1362, 4130, 4129, 1361
7206, 9116, 9118, 9113, 9111, 4130, 4132, 4126, 4124
7207, 9117, 9119, 9118, 9116, 4131, 4133, 4132, 4130
7208, 9112, 9120, 9106, 9102, 4125, 4134, 4103, 4097
7209, 9113, 9121, 9120, 9112, 4126, 4135, 4134, 4125
7210, 9120, 9122, 9108, 9106, 4134, 4136, 4105, 4103
7211, 9121, 9123, 9122, 9120, 4135, 4137, 4136, 4134
7212, 9124, 9125, 9123, 9121, 4138, 4139, 4137, 4135
7213, 9118, 9126, 9121, 9113, 4132, 4140, 4135, 4126
7214, 9126, 9127, 9124, 9121, 4140, 4141, 4138, 4135
7215, 9127, 9119, 9114, 9124, 4141, 4133, 4128, 4138
7216, 9119, 9127, 9126, 9118, 4133, 4141, 4140, 4132
7217, 9104, 9128, 8396, 8366, 4100, 4142, 2432, 2373
7218, 9128, 9130, 8397, 8396, 4142, 4144, 2434, 2432
7219, 9129, 9131, 9130, 9128, 4143, 4145, 4144, 4142
7220, 9107, 9132, 9128, 9104, 4104, 4146, 4142, 4100
7221, 9132, 9133, 9129, 9128, 4146, 4147, 4143, 4142
7222, 9108, 9133, 9132, 9107, 4105, 4147, 4146, 4104
7223, 9130, 9134, 8402, 8397, 4144, 4148, 2442, 2434
7224, 9131, 9135, 9134, 9130, 4145, 4149, 4148, 4144
7225, 9134, 9136, 8403, 8402, 4148, 4150, 2444, 2442
7226, 9135, 9137, 9136, 9134, 4149, 4151, 4150, 4148
7227, 9133, 9138, 9131, 9129, 4147, 4157, 4145, 4143
7228, 9138, 9141, 9135, 9131, 4157, 4165, 4149, 4145
7229, 9139, 9142, 9141, 9138, 4158, 4166, 4165, 4157
7230, 9141, 9143, 9137, 9135, 4165, 4167, 4151, 4149
7231, 9142, 9144, 9143, 9141, 4166, 4168, 4167, 4165
7232, 9122, 9147, 9133, 9108, 4136, 4171, 4147, 4105
7233, 9123, 9148, 9147, 9122, 4137, 4172, 4171, 4136
7234, 9147, 9149, 9138, 9133, 4171, 4173, 4157, 4147
7235, 9149, 9150, 9139, 9138, 4173, 4174, 4158, 4157
7236, 9148, 9150, 9149, 9147, 4172, 4174, 4173, 4171
7237, 9125, 9151, 9148, 9123, 4139, 4175, 4172, 4137
7238, 9151, 9152, 9150, 9148, 4175, 4176, 4174, 4172
7239, 9150, 9153, 9142, 9139, 4174, 4177, 4166, 4158
7240, 9154, 9152, 9140, 9145, 4178, 4176, 4160, 4169
7241, 9152, 9154, 9153, 9150, 4176, 4178, 4177, 4174
7242, 9153, 9155, 9144, 9142, 4177, 4179, 4168, 4166
7243, 9156, 9154, 9145, 9146, 4180, 4178, 4169, 4170
7244, 9154, 9156, 9155, 9153, 4178, 4180, 4179, 4177
7245, 7825, 9157, 9116, 7828, 1359, 4181, 4130, 1362
7246, 9157, 9158, 9117, 9116, 4181, 4182, 4131, 4130
7247, 9158, 8111, 8112, 9117, 4182, 1856, 1857, 4131
7248, 8111, 9158, 9157, 7825, 1856, 4182, 4181, 1359
7249, 9136, 9159, 8432, 8403, 4150, 4183, 2500, 2444
7250, 9137, 9160, 9159, 9136, 4151, 4184, 4183, 4150
7251, 9159, 9161, 8433, 8432, 4183, 4185, 2502, 2500
7252, 9160, 9162, 9161, 9159, 4184, 4186, 4185, 4183
7253, 9161, 9163, 8438, 8433, 4185, 4187, 2510, 2502
7254, 9162, 9164, 9163, 9161, 4186, 4188, 4187, 4185
7255, 9163, 9165, 8439, 8438, 4187, 4189, 2512, 2510
7256, 9164, 9166, 9165, 9163, 4188, 4190, 4189, 4187
7257, 9143, 9167, 9160, 9137, 4167, 4195, 4184, 4151
7258, 9144, 9168, 9167, 9143, 4168, 4196, 4195, 4167
7259, 9167, 9169, 9162, 9160, 4195, 4197, 4186, 4184
7260, 9168, 9170, 9169, 9167, 4196, 4198, 4197, 4195
7261, 9169, 9173, 9164, 9162, 4197, 4205, 4188, 4186
7262, 9170, 9174, 9173, 9169, 4198, 4206, 4205, 4197
7263, 9173, 9175, 9166, 9164, 4205, 4207, 4190, 4188
7264, 9174, 9176, 9175, 9173, 4206, 4208, 4207, 4205
7265, 9155, 9179, 9168, 9144, 4179, 4211, 4196, 4168
7266, 9180, 9156, 9146, 9171, 4212, 4180, 4170, 4199
7267, 9156, 9180, 9179, 9155, 4180, 4212, 4211, 4179
7268, 9179, 9181, 9170, 9168, 4211, 4213, 4198, 4196
7269, 9182, 9180, 9171, 9172, 4214, 4212, 4199, 4200
7270, 9180, 9182, 9181, 9179, 4212, 4214, 4213, 4211
7271, 9181, 9183, 9174, 9170, 4213, 4215, 4206, 4198
7272, 9184, 9182, 9172, 9177, 4216, 4214, 4200, 4209
7273, 9182, 9184, 9183, 9181, 4214, 4216, 4215, 4213
7274, 9183, 9185, 9176, 9174, 4215, 4217, 4208, 4206
7275, 9186, 9184, 9177, 9178, 4218, 4216, 4209, 4210
7276, 9184, 9186, 9185, 9183, 4216, 4218, 4217, 4215
7277, 9165, 9187, 8466, 8439, 4189, 4219, 2566, 2512
7278, 9166, 9188, 9187, 9165, 4190, 4220, 4219, 4189
7279, 9187, 9189, 8467, 8466, 4219, 4221, 2568, 2566
7280, 9188, 9190, 9189, 9187, 4220, 4222, 4221, 4219
7281, 9189, 9191, 8472, 8467, 4221, 4223, 2576, 2568
7282, 9190, 9192, 9191, 9189, 4222, 4224, 4223, 4221
7283, 9191, 9193, 8473, 8472, 4223, 4225, 2578, 2576
7284, 9192, 9194, 9193, 9191, 4224, 4226, 4225, 4223
7285, 9175, 9195, 9188, 9166, 4207, 4231, 4220, 4190
7286, 9176, 9196, 9195, 9175, 4208, 4232, 4231, 4207
7287, 9195, 9197, 9190, 9188, 4231, 4233, 4222, 4220
7288, 9196, 9198, 9197, 9195, 4232, 4234, 4233, 4231
7289, 9197, 9201, 9192, 9190, 4233, 4241, 4224, 4222
7290, 9198, 9202, 9201, 9197, 4234, 4242, 4241, 4233
7291, 9201, 9203, 9194, 9192, 4241, 4243, 4226, 4224
7292, 9202, 9204, 9203, 9201, 4242, 4244, 4243, 4241
7293, 9200, 9205, 9202, 9198, 4236, 4245, 4242, 4234
7294, 9205, 9206, 9204, 9202, 4245, 4246, 4244, 4242
7295, 9185, 9207, 9196, 9176, 4217, 4247, 4232, 4208
7296, 9208, 9186, 9178, 9199, 4248, 4218, 4210, 4235
7297, 9186, 9208, 9207, 9185, 4218, 4248, 4247, 4217
7298, 9207, 9209, 9198, 9196, 4247, 4249, 4234, 4232
7299, 9209, 9210, 9200, 9198, 4249, 4250, 4236, 4234
7300, 9210, 9208, 9199, 9200, 4250, 4248, 4235, 4236
7301, 9208, 9210, 9209, 9207, 4248, 4250, 4249, 4247
7302, 9193, 9211, 8502, 8473, 4225, 4251, 2634, 2578
7303, 9194, 9212, 9211, 9193, 4226, 4252, 4251, 4225
7304, 9211, 9213, 8503, 8502, 4251, 4253, 2636, 2634
7305, 9212, 9214, 9213, 9211, 4252, 4254, 4253, 4251
7306, 9213, 9215, 8508, 8503, 4253, 4255, 2644, 2636
7307, 9214, 9216, 9215, 9213, 4254, 4256, 4255, 4253
7308, 9215, 9217, 8509, 8508, 4255, 4257, 2646, 2644
7309, 9216, 9218, 9217, 9215, 4256, 4258, 4257, 4255
7310, 9203, 9219, 9212, 9194, 4243, 4263, 4252, 4226
7311, 9204, 9220, 9219, 9203, 4244, 4264, 4263, 4243
7312, 9219, 9221, 9214, 9212, 4263, 4265, 4254, 4252
7313, 9220, 9222, 9221, 9219, 4264, 4266, 4265, 4263
7314, 9206, 9223, 9220, 9204, 4246, 4267, 4264, 4244
7315, 9223, 9224, 9222, 9220, 4267, 4268, 4266, 4264
7316, 9221, 9225, 9216, 9214, 4265, 4273, 4256, 4254
7317, 9222, 9226, 9225, 9221, 4266, 4274, 4273, 4265
7318, 9225, 9227, 9218, 9216, 4273, 4275, 4258, 4256
7319, 9226, 9228, 9227, 9225, 4274, 4276, 4275, 4273
7320, 9224, 9229, 9226, 9222, 4268, 4277, 4274, 4266
7321, 9231, 9232, 9228, 9226, 4279, 4280, 4276, 4274
7322, 9231, 9226, 9229, 9234, 4279, 4274, 4277, 4282
7323, 9233, 9234, 9229, 9230, 4281, 4282, 4277, 4278
7324, 9234, 9233, 9232, 9231, 4282, 4281, 4280, 4279
7325, 9217, 9235, 8538, 8509, 4257, 4283, 2702, 2646
7326, 9218, 9236, 9235, 9217, 4258, 4284, 4283, 4257
7327, 9235, 9237, 8539, 8538, 4283, 4285, 2704, 2702
7328, 9236, 9238, 9237, 9235, 4284, 4286, 4285, 4283
7329, 9237, 9239, 8544, 8539, 4285, 4287, 2712, 2704
7330, 9238, 9240, 9239, 9237, 4286, 4288, 4287, 4285
7331, 9239, 9241, 8545, 8544, 4287, 4289, 2714, 2712
7332, 9240, 9242, 9241, 9239, 4288, 4290, 4289, 4287
7333, 9227, 9243, 9236, 9218, 4275, 4295, 4284, 4258
7334, 9228, 9244, 9243, 9227, 4276, 4296, 4295, 4275
7335, 9243, 9245, 9238, 9236, 4295, 4297, 4286, 4284
7336, 9244, 9246, 9245, 9243, 4296, 4298, 4297, 4295
7337, 9245, 9249, 9240, 9238, 4297, 4305, 4288, 4286
7338, 9246, 9250, 9249, 9245, 4298, 4306, 4305, 4297
7339, 9249, 9251, 9242, 9240, 4305, 4307, 4290, 4288
7340, 9250, 9252, 9251, 9249, 4306, 4308, 4307, 4305
7341, 9232, 9255, 9244, 9228, 4280, 4311, 4296, 4276
7342, 9256, 9233, 9230, 9247, 4312, 4281, 4278, 4299
7343, 9233, 9256, 9255, 9232, 4281, 4312, 4311, 4280
7344, 9255, 9257, 9246, 9244, 4311, 4313, 4298, 4296
7345, 9258, 9256, 9247, 9248, 4314, 4312, 4299, 4300
7346, 9256, 9258, 9257, 9255, 4312, 4314, 4313, 4311
7347, 9257, 9259, 9250, 9246, 4313, 4315, 4306, 4298
7348, 9260, 9258, 9248, 9253, 4316, 4314, 4300, 4309
7349, 9258, 9260, 9259, 9257, 4314, 4316, 4315, 4313
7350, 9259, 9261, 9252, 9250, 4315, 4317, 4308, 4306
7351, 9262, 9260, 9253, 9254, 4318, 4316, 4309, 4310
7352, 9260, 9262, 9261, 9259, 4316, 4318, 4317, 4315
7353, 9241, 9263, 8589, 8545, 4289, 4319, 2795, 2714
7354, 9242, 9264, 9263, 9241, 4290, 4320, 4319, 4289
7355, 9263, 9265, 8590, 8589, 4319, 4321, 2797, 2795
7356, 9264, 9266, 9265, 9263, 4320, 4322, 4321, 4319
7357, 9265, 9267, 8593, 8590, 4321, 4323, 2803, 2797
7358, 9267, 9268, 8594, 8593, 4323, 4325, 2805, 2803
7359, 9269, 9270, 9267, 9265, 4327, 4328, 4323, 4321
7360, 9269, 9265, 9266, 9272, 4327, 4321, 4322, 4330
7361, 9272, 9271, 9270, 9269, 4330, 4329, 4328, 4327
7362, 9270, 9273, 9268, 9267, 4328, 4331, 4325, 4323
7363, 9271, 9274, 9273, 9270, 4329, 4332, 4331, 4328
7364, 9251, 9275, 9264, 9242, 4307, 4337, 4320, 4290
7365, 9252, 9276, 9275, 9251, 4308, 4338, 4337, 4307
7366, 9275, 9272, 9266, 9264, 4337, 4330, 4322, 4320
7367, 9278, 9279, 9272, 9275, 4350, 4351, 4330, 4337
7368, 9278, 9275, 9276, 9281, 4350, 4337, 4338, 4353
7369, 9281, 9280, 9279, 9278, 4353, 4352, 4351, 4350
7370, 9261, 9281, 9276, 9252, 4317, 4353, 4338, 4308
7371, 9282, 9262, 9254, 9277, 4354, 4318, 4310, 4340
7372, 9262, 9282, 9281, 9261, 4318, 4354, 4353, 4317
7373, 9282, 9283, 9280, 9281, 4354, 4355, 4352, 4353
7374, 9279, 9284, 9271, 9272, 4351, 4356, 4329, 4330
7375, 9280, 9285, 9284, 9279, 4352, 4357, 4356, 4351
7376, 9284, 9286, 9274, 9271, 4356, 4358, 4332, 4329
7377, 9285, 9287, 9286, 9284, 4357, 4359, 4358, 4356
7378, 9283, 9288, 9285, 9280, 4355, 4360, 4357, 4352
7379, 9288, 9289, 9287, 9285, 4360, 4361, 4359, 4357
7380, 9268, 9290, 8604, 8594, 4325, 4362, 2844, 2805
7381, 9290, 9291, 8605, 8604, 4362, 4364, 2846, 2844
7382, 9273, 9292, 9290, 9268, 4331, 4366, 4362, 4325
7383, 9274, 9293, 9292, 9273, 4332, 4367, 4366, 4331
7384, 9292, 9294, 9291, 9290, 4366, 4368, 4364, 4362
7385, 9293, 9295, 9294, 9292, 4367, 4369, 4368, 4366
7386, 9291, 7877, 7876, 8605, 4364, 1417, 1416, 2846
7387, 9294, 7881, 7877, 9291, 4368, 1430, 1417, 4364
7388, 9296, 7884, 7881, 9294, 4378, 1436, 1430, 4368
7389, 9296, 9294, 9295, 9297, 4378, 4368, 4369, 4379
7390, 9297, 7883, 7884, 9296, 4379, 1435, 1436, 4378
7391, 9286, 9298, 9293, 9274, 4358, 4380, 4367, 4332
7392, 9287, 9299, 9298, 9286, 4359, 4381, 4380, 4358
7393, 9298, 9297, 9295, 9293, 4380, 4379, 4369, 4367
7394, 9301, 9302, 9297, 9298, 4385, 4386, 4379, 4380
7395, 9301, 9298, 9299, 9304, 4385, 4380, 4381, 4388
7396, 9304, 9303, 9302, 9301, 4388, 4387, 4386, 4385
7397, 9305, 9304, 9299, 9287, 4389, 4388, 4381, 4359
7398, 9305, 9287, 9289, 9307, 4389, 4359, 4361, 4391
7399, 9306, 9307, 9289, 9300, 4390, 4391, 4361, 4383
7400, 9307, 9306, 9304, 9305, 4391, 4390, 4388, 4389
7401, 9306, 9308, 9303, 9304, 4390, 4392, 4387, 4388
7402, 9302, 7913, 7883, 9297, 4386, 1504, 1435, 4379
7403, 9303, 7914, 7913, 9302, 4387, 1505, 1504, 4386
7404, 9309, 7915, 7914, 9303, 4393, 1506, 1505, 4387
7405, 9309, 9303, 9308, 9310, 4393, 4387, 4392, 4394
7406, 8166, 9310, 9308, 8163, 1951, 4394, 4392, 1948
7407, 9310, 8166, 7915, 9309, 4394, 1951, 1506, 4393
7408, 7888, 9311, 8618, 7889, 1445, 4395, 2947, 1446
7409, 9311, 9312, 8619, 8618, 4395, 4397, 2949, 2947
7410, 9312, 9313, 8620, 8619, 4397, 4398, 2950, 2949
7411, 7891, 9314, 9311, 7888, 1458, 4401, 4395, 1445
7412, 9314, 9315, 9312, 9311, 4401, 4403, 4397, 4395
7413, 9318, 9319, 9317, 9316, 4411, 4412, 4409, 4408
7414, 9323, 9324, 9321, 9320, 4418, 4419, 4416, 4415
7415, 9324, 9318, 9316, 9321, 4419, 4411, 4408, 4416
7416, 9318, 9324, 9323, 9322, 4411, 4419, 4418, 4417
7417, 9327, 9323, 9320, 9326, 4425, 4418, 4415, 4423
7418, 9328, 9325, 9317, 8635, 4426, 4422, 4409, 2978
7419, 9325, 9326, 9329, 9317, 4422, 4423, 4428, 4409
7420, 9320, 9321, 9329, 9326, 4415, 4416, 4428, 4423
7421, 9321, 9316, 9317, 9329, 4416, 4408, 4409, 4428
7422, 8630, 8635, 9317, 8631, 2968, 2978, 4409, 2969
7423, 9319, 8632, 8631, 9317, 4412, 2971, 2969, 4409
7424, 9327, 9326, 9331, 9334, 4425, 4423, 4431, 4434
7425, 9333, 9334, 9331, 9330, 4433, 4434, 4431, 4430
7426, 9334, 9333, 9332, 9327, 4434, 4433, 4432, 4425
7427, 9325, 9328, 9331, 9326, 4422, 4426, 4431, 4423
7428, 9313, 9328, 8635, 8620, 4398, 4426, 2978, 2950
7429, 9312, 9331, 9328, 9313, 4397, 4431, 4426, 4398
7430, 9315, 9330, 9331, 9312, 4403, 4430, 4431, 4397
7431, 7892, 7932, 9314, 7891, 1465, 1530, 4401, 1458
7432, 7932, 7934, 9315, 9314, 1530, 1534, 4403, 4401
7433, 7934, 7935, 9330, 9315, 1534, 1538, 4430, 4403
7434, 7935, 7951, 9333, 9330, 1538, 1579, 4433, 4430
7435, 7951, 7952, 9335, 9333, 1579, 1580, 4488, 4433
7436, 9332, 9338, 9336, 9327, 4432, 4492, 4490, 4425
7437, 9336, 9339, 9340, 9337, 4490, 4494, 4495, 4491
7438, 9338, 9341, 9339, 9336, 4492, 4496, 4494, 4490
7439, 9339, 9342, 9343, 9340, 4494, 4498, 4499, 4495
7440, 9341, 9344, 9342, 9339, 4496, 4500, 4498, 4494
7441, 9344, 9345, 9343, 9342, 4500, 4501, 4499, 4498
7442, 9333, 9347, 9338, 9332, 4433, 4507, 4492, 4432
7443, 9348, 9335, 9344, 9341, 4508, 4488, 4500, 4496
7444, 9347, 9348, 9341, 9338, 4507, 4508, 4496, 4492
7445, 9333, 9335, 9348, 9347, 4433, 4488, 4508, 4507
7446, 7952, 7953, 9349, 9335, 1580, 1586, 4509, 4488
7447, 9349, 9351, 9352, 9350, 4509, 4513, 4514, 4510
7448, 7953, 7954, 9351, 9349, 1586, 1590, 4513, 4509
7449, 7954, 7955, 9352, 9351, 1590, 1591, 4514, 4513
7450, 9353, 9354, 9355, 9356, 4515, 4516, 4517, 4518
7451, 9357, 9358, 9354, 9353, 4519, 4520, 4516, 4515
7452, 9358, 9359, 9355, 9354, 4520, 4521, 4517, 4516
7453, 9350, 9359, 9358, 9357, 4510, 4521, 4520, 4519
7454, 9344, 9360, 9357, 9345, 4500, 4522, 4519, 4501
7455, 9335, 9349, 9360, 9344, 4488, 4509, 4522, 4500
7456, 9349, 9350, 9357, 9360, 4509, 4510, 4519, 4522
7457, 9343, 9353, 9356, 9346, 4499, 4515, 4518, 4506
7458, 9345, 9357, 9353, 9343, 4501, 4519, 4515, 4499
7459, 7955, 7956, 9361, 9352, 1591, 1599, 4523, 4514
7460, 9364, 9366, 9367, 9365, 4552, 4558, 4559, 4553
7461, 9368, 9369, 9367, 9366, 4560, 4561, 4559, 4558
7462, 9365, 9367, 9371, 9370, 4553, 4559, 4566, 4562
7463, 9367, 9372, 9373, 9371, 4559, 4568, 4569, 4566
7464, 9369, 9374, 9372, 9367, 4561, 4570, 4568, 4559
7465, 9374, 9375, 9373, 9372, 4570, 4571, 4569, 4568
7466, 9371, 9373, 9377, 9376, 4566, 4569, 4577, 4575
7467, 9375, 9362, 9377, 9373, 4571, 4550, 4577, 4569
7468, 9368, 9361, 9374, 9369, 4560, 4523, 4570, 4561
7469, 9363, 9356, 9355, 9364, 4551, 4518, 4517, 4552
7470, 9364, 9355, 9378, 9366, 4552, 4517, 4578, 4558
7471, 9359, 9379, 9378, 9355, 4521, 4579, 4578, 4517
7472, 9379, 9368, 9366, 9378, 4579, 4560, 4558, 4578
7473, 9350, 9352, 9379, 9359, 4510, 4514, 4579, 4521
7474, 9352, 9361, 9368, 9379, 4514, 4523, 4560, 4579
7475, 7956, 7973, 9380, 9361, 1599, 1627, 4580, 4523
7476, 7973, 7978, 9381, 9380, 1627, 1633, 4581, 4580
7477, 9362, 9381, 9383, 9382, 4550, 4581, 4583, 4582
7478, 7978, 8214, 9383, 9381, 1633, 2044, 4583, 4581
7479, 9384, 9385, 9038, 9386, 4584, 4585, 3906, 4586
7480, 9387, 9388, 9385, 9384, 4587, 4588, 4585, 4584
7481, 9387, 9384, 9386, 9389, 4587, 4584, 4586, 4589
7482, 9037, 9389, 9386, 9038, 3905, 4589, 4586, 3906
7483, 8027, 9038, 9385, 8028, 1686, 3906, 4585, 1687
7484, 8051, 8028, 9385, 9388, 1716, 1687, 4585, 4588
7485, 9390, 9391, 9392, 9393, 4591, 4592, 4593, 4594
7486, 9037, 9390, 9393, 9389, 3905, 4591, 4594, 4589
7487, 9393, 9392, 9395, 9396, 4594, 4593, 4604, 4605
7488, 9389, 9393, 9396, 9387, 4589, 4594, 4605, 4587
7489, 9397, 9387, 9396, 9395, 4606, 4587, 4605, 4604
7490, 9392, 9394, 9398, 9395, 4593, 4598, 4607, 4604
7491, 9395, 9398, 9399, 9400, 4604, 4607, 4611, 4612
7492, 9397, 9395, 9400, 9401, 4606, 4604, 4612, 4614
7493, 9401, 9388, 9387, 9397, 4614, 4588, 4587, 4606
7494, 9390, 9082, 9081, 9391, 4591, 3982, 3981, 4592
7495, 9037, 9034, 9082, 9390, 3905, 3902, 3982, 4591
7496, 8051, 9388, 9404, 8053, 1716, 4588, 4618, 1728
7497, 8052, 8053, 9404, 9403, 1727, 1728, 4618, 4617
7498, 9405, 9406, 9407, 9408, 4657, 4658, 4659, 4660
7499, 9409, 9405, 9408, 9411, 4661, 4657, 4660, 4663
7500, 9410, 9411, 9408, 9407, 4662, 4663, 4660, 4659
7501, 9411, 9410, 9403, 9409, 4663, 4662, 4617, 4661
7502, 9412, 9400, 9399, 9405, 4664, 4612, 4611, 4657
7503, 9413, 9401, 9400, 9412, 4665, 4614, 4612, 4664
7504, 9413, 9412, 9405, 9409, 4665, 4664, 4657, 4661
7505, 9404, 9388, 9401, 9413, 4618, 4588, 4614, 4665
7506, 9404, 9413, 9409, 9403, 4618, 4665, 4661, 4617
7507, 9405, 9399, 9402, 9406, 4657, 4611, 4615, 4658
7508, 8052, 9403, 9415, 8054, 1727, 4617, 4667, 1735
7509, 8056, 8054, 9415, 9414, 1738, 1735, 4667, 4666
7510, 8057, 8056, 9414, 9416, 1740, 1738, 4666, 4668
7511, 9419, 9418, 9420, 9421, 4672, 4671, 4683, 4684
7512, 9422, 9423, 9421, 9420, 4685, 4686, 4684, 4683
7513, 9425, 9422, 9420, 9424, 4688, 4685, 4683, 4687
7514, 9424, 9426, 9427, 9428, 4687, 4689, 4691, 4692
7515, 9425, 9424, 9428, 9429, 4688, 4687, 4692, 4693
7516, 9416, 9429, 9428, 9427, 4668, 4693, 4692, 4691
7517, 9430, 9414, 9423, 9422, 4694, 4666, 4686, 4685
7518, 9429, 9430, 9422, 9425, 4693, 4694, 4685, 4688
7519, 9416, 9414, 9430, 9429, 4668, 4666, 4694, 4693
7520, 9406, 9417, 9419, 9407, 4658, 4669, 4672, 4659
7521, 9407, 9419, 9421, 9431, 4659, 4672, 4684, 4695
7522, 9410, 9407, 9431, 9432, 4662, 4659, 4695, 4696
7523, 9423, 9432, 9431, 9421, 4686, 4696, 4695, 4684
7524, 9403, 9410, 9432, 9415, 4617, 4662, 4696, 4667
7525, 9414, 9415, 9432, 9423, 4666, 4667, 4696, 4686
7526, 9426, 9433, 9434, 9427, 4689, 4700, 4702, 4691
7527, 9435, 9416, 9427, 9434, 4703, 4668, 4691, 4702
7528, 8097, 8057, 9416, 9435, 1841, 1740, 4668, 4703
7529, 9436, 9434, 8767, 8766, 4734, 4702, 3342, 3341
7530, 9437, 9439, 9440, 9438, 4736, 4742, 4743, 4737
7531, 9441, 9442, 9440, 9439, 4744, 4745, 4743, 4742
7532, 9442, 9444, 9443, 9440, 4745, 4751, 4750, 4743
7533, 9444, 9433, 9426, 9443, 4751, 4700, 4689, 4750
7534, 9441, 9433, 9444, 9442, 4744, 4700, 4751, 4745
7535, 8767, 9434, 9433, 9441, 3342, 4702, 4700, 4744
7536, 9437, 8762, 8763, 9439, 4736, 3335, 3338, 4742
7537, 8764, 9441, 9439, 8763, 3339, 4744, 4742, 3338
7538, 8756, 8767, 9441, 8764, 3322, 3342, 4744, 3339
7539, 9445, 9436, 8766, 8768, 4752, 4734, 3341, 3343
7540, 9446, 9435, 9434, 9436, 4753, 4703, 4702, 4734
7541, 9447, 9446, 9436, 9445, 4754, 4753, 4734, 4752
7542, 8075, 9445, 8768, 8074, 1773, 4752, 3343, 1772
7543, 8077, 9447, 9445, 8075, 1781, 4754, 4752, 1773
7544, 8096, 8097, 9435, 9446, 1840, 1841, 4703, 4753
7545, 8098, 8096, 9446, 9447, 1843, 1840, 4753, 4754
7546, 8079, 8098, 9447, 8077, 1788, 1843, 4754, 1781
7547, 9448, 8083, 8084, 8791, 4757, 1804, 1805, 3373
7548, 9449, 9448, 8791, 8792, 4758, 4757, 3373, 3374
7549, 9452, 8089, 8083, 9448, 4761, 1814, 1804, 4757
7550, 9453, 9452, 9448, 9449, 4762, 4761, 4757, 4758
7551, 9452, 9453, 9451, 9450, 4761, 4762, 4760, 4759
7552, 9454, 9449, 8792, 8795, 4765, 4758, 3374, 3381
7553, 9455, 9454, 8795, 8796, 4766, 4765, 3381, 3382
7554, 9458, 9453, 9449, 9454, 4769, 4762, 4758, 4765
7555, 9453, 9458, 9456, 9451, 4762, 4769, 4767, 4760
7556, 9459, 9458, 9454, 9455, 4770, 4769, 4765, 4766
7557, 9458, 9459, 9457, 9456, 4769, 4770, 4768, 4767
7558, 9461, 9460, 9450, 9451, 4772, 4771, 4759, 4760
7559, 9460, 9462, 9452, 9450, 4771, 4773, 4761, 4759
7560, 9462, 8092, 8089, 9452, 4773, 1819, 1814, 4761
7561, 8092, 9462, 9460, 8090, 1819, 4773, 4771, 1816
7562, 9463, 8113, 8090, 9460, 4774, 1858, 1816, 4771
7563, 8113, 9463, 9117, 8112, 1858, 4774, 4131, 1857
7564, 9119, 9464, 9461, 9114, 4133, 4775, 4772, 4128
7565, 9464, 9463, 9460, 9461, 4775, 4774, 4771, 4772
7566, 9463, 9464, 9119, 9117, 4774, 4775, 4133, 4131
7567, 9465, 9461, 9451, 9456, 4776, 4772, 4760, 4767
7568, 9461, 9465, 9124, 9114, 4772, 4776, 4138, 4128
7569, 9466, 9465, 9456, 9457, 4777, 4776, 4767, 4768
7570, 9465, 9466, 9125, 9124, 4776, 4777, 4139, 4138
7571, 9469, 9455, 8796, 8811, 4780, 4766, 3382, 3401
7572, 9470, 9469, 8811, 8812, 4781, 4780, 3401, 3402
7573, 9469, 9470, 9468, 9467, 4780, 4781, 4779, 4778
7574, 9472, 9471, 9467, 9468, 4783, 4782, 4778, 4779
7575, 9471, 9473, 9469, 9467, 4782, 4784, 4780, 4778
7576, 9473, 9459, 9455, 9469, 4784, 4770, 4766, 4780
7577, 9459, 9473, 9471, 9457, 4770, 4784, 4782, 4768
7578, 9476, 9470, 8812, 8817, 4787, 4781, 3402, 3411
7579, 9470, 9476, 9474, 9468, 4781, 4787, 4785, 4779
7580, 9477, 9476, 8817, 8818, 4788, 4787, 3411, 3412
7581, 9476, 9477, 9475, 9474, 4787, 4788, 4786, 4785
7582, 9478, 9472, 9468, 9474, 4789, 4783, 4779, 4785
7583, 9472, 9478, 9145, 9140, 4783, 4789, 4169, 4160
7584, 9479, 9478, 9474, 9475, 4790, 4789, 4785, 4786
7585, 9478, 9479, 9146, 9145, 4789, 4790, 4170, 4169
7586, 9480, 9466, 9457, 9471, 4791, 4777, 4768, 4782
7587, 9466, 9480, 9151, 9125, 4777, 4791, 4175, 4139
7588, 9152, 9481, 9472, 9140, 4176, 4792, 4783, 4160
7589, 9481, 9480, 9471, 9472, 4792, 4791, 4782, 4783
7590, 9480, 9481, 9152, 9151, 4791, 4792, 4176, 4175
7591, 9484, 9477, 8818, 8831, 4795, 4788, 3412, 3429
7592, 9477, 9484, 9482, 9475, 4788, 4795, 4793, 4786
7593, 9485, 9484, 8831, 8832, 4796, 4795, 3429, 3430
7594, 9484, 9485, 9483, 9482, 4795, 4796, 4794, 4793
7595, 9486, 9479, 9475, 9482, 4797, 4790, 4786, 4793
7596, 9479, 9486, 9171, 9146, 4790, 4797, 4199, 4170
7597, 9487, 9486, 9482, 9483, 4798, 4797, 4793, 4794
7598, 9486, 9487, 9172, 9171, 4797, 4798, 4200, 4199
7599, 9490, 9485, 8832, 8837, 4801, 4796, 3430, 3439
7600, 9485, 9490, 9488, 9483, 4796, 4801, 4799, 4794
7601, 9491, 9490, 8837, 8838, 4802, 4801, 3439, 3440
7602, 9490, 9491, 9489, 9488, 4801, 4802, 4800, 4799
7603, 9492, 9487, 9483, 9488, 4803, 4798, 4794, 4799
7604, 9487, 9492, 9177, 9172, 4798, 4803, 4209, 4200
7605, 9493, 9492, 9488, 9489, 4804, 4803, 4799, 4800
7606, 9492, 9493, 9178, 9177, 4803, 4804, 4210, 4209
7607, 9496, 9491, 8838, 8851, 4807, 4802, 3440, 3457
7608, 9491, 9496, 9494, 9489, 4802, 4807, 4805, 4800
7609, 9497, 9496, 8851, 8852, 4808, 4807, 3457, 3458
7610, 9496, 9497, 9495, 9494, 4807, 4808, 4806, 4805
7611, 9498, 9493, 9489, 9494, 4809, 4804, 4800, 4805
7612, 9493, 9498, 9199, 9178, 4804, 4809, 4235, 4210
7613, 9499, 9498, 9494, 9495, 4810, 4809, 4805, 4806
7614, 9498, 9499, 9200, 9199, 4809, 4810, 4236, 4235
7615, 9502, 9497, 8852, 8857, 4813, 4808, 3458, 3467
7616, 9497, 9502, 9500, 9495, 4808, 4813, 4811, 4806
7617, 9503, 9502, 8857, 8858, 4814, 4813, 3467, 3468
7618, 9502, 9503, 9501, 9500, 4813, 4814, 4812, 4811
7619, 9504, 9499, 9495, 9500, 4815, 4810, 4806, 4811
7620, 9499, 9504, 9205, 9200, 4810, 4815, 4245, 4236
7621, 9505, 9504, 9500, 9501, 4816, 4815, 4811, 4812
7622, 9504, 9505, 9206, 9205, 4815, 4816, 4246, 4245
7623, 9508, 9503, 8858, 8871, 4819, 4814, 3468, 3485
7624, 9503, 9508, 9506, 9501, 4814, 4819, 4817, 4812
7625, 9509, 9508, 8871, 8872, 4820, 4819, 3485, 3486
7626, 9508, 9509, 9507, 9506, 4819, 4820, 4818, 4817
7627, 9510, 9505, 9501, 9506, 4821, 4816, 4812, 4817
7628, 9505, 9510, 9223, 9206, 4816, 4821, 4267, 4246
7629, 9511, 9510, 9506, 9507, 4822, 4821, 4817, 4818
7630, 9510, 9511, 9224, 9223, 4821, 4822, 4268, 4267
7631, 9514, 9509, 8872, 8877, 4825, 4820, 3486, 3495
7632, 9509, 9514, 9512, 9507, 4820, 4825, 4823, 4818
7633, 9515, 9514, 8877, 8878, 4826, 4825, 3495, 3496
7634, 9514, 9515, 9513, 9512, 4825, 4826, 4824, 4823
7635, 9516, 9511, 9507, 9512, 4827, 4822, 4818, 4823
7636, 9511, 9516, 9229, 9224, 4822, 4827, 4277, 4268
7637, 9517, 9516, 9512, 9513, 4828, 4827, 4823, 4824
7638, 9516, 9517, 9230, 9229, 4827, 4828, 4278, 4277
7639, 9520, 9515, 8878, 8891, 4831, 4826, 3496, 3513
7640, 9515, 9520, 9518, 9513, 4826, 4831, 4829, 4824
7641, 9521, 9520, 8891, 8892, 4832, 4831, 3513, 3514
7642, 9520, 9521, 9519, 9518, 4831, 4832, 4830, 4829
7643, 9522, 9517, 9513, 9518, 4833, 4828, 4824, 4829
7644, 9517, 9522, 9247, 9230, 4828, 4833, 4299, 4278
7645, 9523, 9522, 9518, 9519, 4834, 4833, 4829, 4830
7646, 9522, 9523, 9248, 9247, 4833, 4834, 4300, 4299
7647, 9526, 9521, 8892, 8897, 4837, 4832, 3514, 3523
7648, 9521, 9526, 9524, 9519, 4832, 4837, 4835, 4830
7649, 9527, 9526, 8897, 8898, 4838, 4837, 3523, 3524
7650, 9526, 9527, 9525, 9524, 4837, 4838, 4836, 4835
7651, 9528, 9523, 9519, 9524, 4839, 4834, 4830, 4835
7652, 9523, 9528, 9253, 9248, 4834, 4839, 4309, 4300
7653, 9529, 9528, 9524, 9525, 4840, 4839, 4835, 4836
7654, 9528, 9529, 9254, 9253, 4839, 4840, 4310, 4309
7655, 9532, 9527, 8898, 8922, 4843, 4838, 3524, 3553
7656, 9527, 9532, 9530, 9525, 4838, 4843, 4841, 4836
7657, 9533, 9532, 8922, 8923, 4844, 4843, 3553, 3554
7658, 9532, 9533, 9531, 9530, 4843, 4844, 4842, 4841
7659, 9534, 9529, 9525, 9530, 4845, 4840, 4836, 4841
7660, 9529, 9534, 9277, 9254, 4840, 4845, 4340, 4310
7661, 9535, 9534, 9530, 9531, 4846, 4845, 4841, 4842
7662, 9536, 9533, 8923, 8926, 4849, 4844, 3554, 3561
7663, 9537, 9536, 8926, 8927, 4850, 4849, 3561, 3562
7664, 9535, 9531, 9533, 9541, 4846, 4842, 4844, 4854
7665, 9540, 9541, 9533, 9536, 4853, 4854, 4844, 4849
7666, 9541, 9540, 9538, 9535, 4854, 4853, 4851, 4846
7667, 9542, 9540, 9536, 9537, 4855, 4853, 4849, 4850
7668, 9540, 9542, 9539, 9538, 4853, 4855, 4852, 4851
7669, 9282, 9277, 9534, 9544, 4354, 4340, 4845, 4857
7670, 9543, 9544, 9534, 9535, 4856, 4857, 4845, 4846
7671, 9544, 9543, 9283, 9282, 4857, 4856, 4355, 4354
7672, 9545, 9543, 9535, 9538, 4858, 4856, 4846, 4851
7673, 9543, 9545, 9288, 9283, 4856, 4858, 4360, 4355
7674, 9546, 9545, 9538, 9539, 4859, 4858, 4851, 4852
7675, 9545, 9546, 9289, 9288, 4858, 4859, 4361, 4360
7676, 9547, 9537, 8927, 8937, 4862, 4850, 3562, 3578
7677, 9548, 9547, 8937, 8938, 4863, 4862, 3578, 3579
7678, 9551, 9542, 9537, 9547, 4866, 4855, 4850, 4862
7679, 9542, 9551, 9549, 9539, 4855, 4866, 4864, 4852
7680, 9552, 9551, 9547, 9548, 4867, 4866, 4862, 4863
7681, 9551, 9552, 9550, 9549, 4866, 4867, 4865, 4864
7682, 8141, 9548, 8938, 8140, 1893, 4863, 3579, 1892
7683, 8146, 9552, 9548, 8141, 1903, 4867, 4863, 1893
7684, 9553, 9546, 9539, 9549, 4868, 4859, 4852, 4864
7685, 9546, 9553, 9300, 9289, 4859, 4868, 4383, 4361
7686, 9554, 9553, 9549, 9550, 4869, 4868, 4864, 4865
7687, 9306, 9300, 9553, 9556, 4390, 4383, 4868, 4871
7688, 9555, 9556, 9553, 9554, 4870, 4871, 4868, 4869
7689, 9556, 9555, 9308, 9306, 4871, 4870, 4392, 4390
7690, 9554, 9550, 9552, 9557, 4869, 4865, 4867, 4872
7691, 8149, 9557, 9552, 8146, 1908, 4872, 4867, 1903
7692, 9557, 8149, 8148, 9554, 4872, 1908, 1905, 4869
7693, 8164, 9555, 9554, 8148, 1949, 4870, 4869, 1905
7694, 9555, 8164, 8163, 9308, 4870, 1949, 1948, 4392
7695, 9558, 8153, 8154, 8962, 4954, 1923, 1924, 3756
7696, 9561, 9559, 9560, 9562, 4961, 4959, 4960, 4962
7697, 9564, 9563, 9559, 9561, 4966, 4965, 4959, 4961
7698, 9566, 9565, 9563, 9564, 4970, 4969, 4965, 4966
7699, 9563, 9565, 9560, 9559, 4965, 4969, 4960, 4959
7700, 9565, 9558, 8962, 9560, 4969, 4954, 3756, 4960
7701, 8961, 9562, 9560, 8960, 3755, 4962, 4960, 3754
7702, 8960, 9560, 8962, 8955, 3754, 4960, 3756, 3743
7703, 9568, 9569, 9567, 9558, 4976, 4977, 4975, 4954
7704, 9568, 9558, 9565, 9566, 4976, 4954, 4969, 4970
7705, 9567, 8156, 8153, 9558, 4975, 1932, 1923, 4954
7706, 8178, 8157, 8156, 9567, 1982, 1938, 1932, 4975
7707, 8180, 8178, 9567, 9569, 1984, 1982, 4975, 4977
7708, 8181, 8180, 9569, 9570, 1986, 1984, 4977, 4979
7709, 9566, 9571, 9574, 9568, 4970, 4986, 4992, 4976
7710, 9575, 9569, 9568, 9574, 4993, 4977, 4976, 4992
7711, 9571, 9572, 9576, 9574, 4986, 4988, 4994, 4992
7712, 9577, 9575, 9574, 9576, 4995, 4993, 4992, 4994
7713, 9572, 9573, 9578, 9576, 4988, 4990, 4996, 4994
7714, 9570, 9577, 9576, 9578, 4979, 4995, 4994, 4996
7715, 9570, 9569, 9575, 9577, 4979, 4977, 4993, 4995
7716, 8202, 8181, 9570, 9579, 2030, 1986, 4979, 4997
7717, 9583, 9585, 9586, 9584, 5032, 5036, 5037, 5033
7718, 9382, 9587, 9586, 9585, 4582, 5038, 5037, 5036
7719, 9582, 9584, 9589, 9588, 5027, 5033, 5043, 5039
7720, 9584, 9586, 9591, 9589, 5033, 5037, 5045, 5043
7721, 9587, 9592, 9591, 9586, 5038, 5046, 5045, 5037
7722, 9592, 9590, 9589, 9591, 5046, 5044, 5043, 5045
7723, 9588, 9589, 9595, 9593, 5039, 5043, 5050, 5047
7724, 9590, 9596, 9595, 9589, 5044, 5051, 5050, 5043
7725, 9581, 9596, 9590, 9592, 5024, 5051, 5044, 5046
7726, 9583, 9376, 9377, 9585, 5032, 4575, 4577, 5036
7727, 9362, 9382, 9585, 9377, 4550, 4582, 5036, 4577
7728, 8214, 8217, 9597, 9383, 2044, 2047, 5052, 4583
7729, 8217, 8198, 9581, 9597, 2047, 2019, 5024, 5052
7730, 8198, 8200, 9598, 9581, 2019, 2027, 5053, 5024
7731, 8200, 8199, 9580, 9598, 2027, 2025, 5023, 5053
7732, 8201, 8202, 9579, 9599, 2029, 2030, 4997, 5054
7733, 9600, 9601, 9608, 9605, 5056, 5062, 5072, 5068
7734, 9609, 9607, 9605, 9608, 5073, 5070, 5068, 5072
7735, 9601, 9603, 9610, 9608, 5062, 5066, 5074, 5072
7736, 9604, 9611, 9610, 9603, 5067, 5075, 5074, 5066
7737, 9611, 9609, 9608, 9610, 5075, 5073, 5072, 5074
7738, 9606, 9605, 9612, 9613, 5069, 5068, 5076, 5077
7739, 9607, 9614, 9612, 9605, 5070, 5078, 5076, 5068
7740, 9614, 9579, 9613, 9612, 5078, 4997, 5077, 5076
7741, 9599, 9615, 9609, 9611, 5054, 5079, 5073, 5075
7742, 9615, 9614, 9607, 9609, 5079, 5078, 5070, 5073
7743, 9599, 9579, 9614, 9615, 5054, 4997, 5078, 5079
7744, 9573, 9606, 9613, 9578, 4990, 5069, 5077, 4996
7745, 9579, 9570, 9578, 9613, 4997, 4979, 4996, 5077
7746, 8199, 8203, 9616, 9580, 2025, 2032, 5080, 5023
7747, 8203, 8201, 9599, 9616, 2032, 2029, 5054, 5080
7748, 9617, 9618, 9619, 9620, 5081, 5082, 5083, 5084
7749, 9621, 9622, 9619, 9618, 5085, 5086, 5083, 5082
7750, 9622, 9623, 9620, 9619, 5086, 5087, 5084, 5083
7751, 9623, 9622, 9621, 9580, 5087, 5086, 5085, 5023
7752, 9602, 9617, 9620, 9603, 5065, 5081, 5084, 5066
7753, 9623, 9604, 9603, 9620, 5087, 5067, 5066, 5084
7754, 9604, 9623, 9624, 9611, 5067, 5087, 5088, 5075
7755, 9580, 9616, 9624, 9623, 5023, 5080, 5088, 5087
7756, 9616, 9599, 9611, 9624, 5080, 5054, 5075, 5088
7757, 9617, 9594, 9593, 9618, 5081, 5048, 5047, 5082
7758, 9618, 9593, 9595, 9625, 5082, 5047, 5050, 5089
7759, 9621, 9618, 9625, 9626, 5085, 5082, 5089, 5090
7760, 9596, 9626, 9625, 9595, 5051, 5090, 5089, 5050
7761, 9580, 9621, 9626, 9598, 5023, 5085, 5090, 5053
7762, 9581, 9598, 9626, 9596, 5024, 5053, 5090, 5051
7763, 9627, 9628, 8286, 8267, 5091, 5092, 2132, 2101
7764, 9627, 8267, 8297, 9630, 5091, 2101, 2158, 5094
7765, 9630, 9629, 9628, 9627, 5094, 5093, 5092, 5091
7766, 9631, 9632, 8276, 8285, 5095, 5096, 2115, 2125
7767, 9631, 8285, 8282, 9634, 5095, 2125, 2122, 5098
7768, 9634, 9633, 9632, 9631, 5098, 5097, 5096, 5095
7769, 9632, 8312, 8275, 8276, 5096, 2239, 2114, 2115
7770, 9635, 8315, 8312, 9632, 5099, 2245, 2239, 5096
7771, 9635, 9632, 9633, 9636, 5099, 5096, 5097, 5100
7772, 9636, 8314, 8315, 9635, 5100, 2244, 2245, 5099
7773, 9637, 9634, 8282, 8283, 5101, 5098, 2122, 2123
7774, 9637, 8283, 8286, 9628, 5101, 2123, 2132, 5092
7775, 9628, 9638, 9634, 9637, 5092, 5102, 5098, 5101
7776, 9639, 9636, 9633, 9634, 5106, 5100, 5097, 5098
7777, 9639, 9634, 9638, 9640, 5106, 5098, 5102, 5108
7778, 9641, 9640, 9638, 9628, 5109, 5108, 5102, 5092
7779, 9641, 9628, 9629, 9642, 5109, 5092, 5093, 5111
7780, 9643, 9644, 9636, 9639, 5113, 5114, 5100, 5106
7781, 9643, 9639, 9640, 9645, 5113, 5106, 5108, 5116
7782, 9646, 9645, 9640, 9641, 5117, 5116, 5108, 5109
7783, 9646, 9641, 9642, 9647, 5117, 5109, 5111, 5119
7784, 9648, 9649, 9644, 9643, 5121, 5122, 5114, 5113
7785, 9648, 9643, 9645, 9650, 5121, 5113, 5116, 5124
7786, 9651, 9650, 9645, 9646, 5125, 5124, 5116, 5117
7787, 9651, 9646, 9647, 9652, 5125, 5117, 5119, 5127
7788, 9644, 8317, 8314, 9636, 5114, 2250, 2244, 5100
7789, 9649, 9087, 8317, 9644, 5122, 4033, 2250, 5114
7790, 9653, 9630, 8297, 8296, 5129, 5094, 2158, 2155
7791, 9653, 8296, 8293, 9655, 5129, 2155, 2152, 5131
7792, 9655, 9654, 9630, 9653, 5131, 5130, 5094, 5129
7793, 9655, 8293, 8301, 9657, 5131, 2152, 2164, 5134
7794, 9657, 9656, 9654, 9655, 5134, 5133, 5130, 5131
7795, 9658, 9642, 9629, 9630, 5136, 5111, 5093, 5094
7796, 9658, 9630, 9654, 9659, 5136, 5094, 5130, 5138
7797, 9659, 9654, 9656, 9660, 5138, 5130, 5133, 5140
7798, 9661, 9657, 8301, 8298, 5141, 5134, 2164, 2160
7799, 9661, 8298, 8302, 9663, 5141, 2160, 2168, 5143
7800, 9663, 9662, 9657, 9661, 5143, 5142, 5134, 5141
7801, 9663, 8302, 8710, 9665, 5143, 2168, 3172, 5145
7802, 9665, 9664, 9662, 9663, 5145, 5144, 5142, 5143
7803, 9666, 9660, 9656, 9657, 5150, 5140, 5133, 5134
7804, 9666, 9657, 9662, 9668, 5150, 5134, 5142, 5152
7805, 9668, 9667, 9660, 9666, 5152, 5151, 5140, 5150
7806, 9668, 9662, 9664, 9670, 5152, 5142, 5144, 5155
7807, 9670, 9669, 9667, 9668, 5155, 5154, 5151, 5152
7808, 9671, 9647, 9642, 9658, 5157, 5119, 5111, 5136
7809, 9671, 9658, 9659, 9673, 5157, 5136, 5138, 5159
7810, 9673, 9672, 9647, 9671, 5159, 5158, 5119, 5157
7811, 9673, 9659, 9660, 9674, 5159, 5138, 5140, 5161
7812, 9675, 9676, 9672, 9673, 5162, 5163, 5158, 5159
7813, 9675, 9673, 9674, 9677, 5162, 5159, 5161, 5165
7814, 9674, 9660, 9667, 9678, 5161, 5140, 5151, 5167
7815, 9678, 9667, 9669, 9679, 5167, 5151, 5154, 5169
7816, 9677, 9674, 9678, 9680, 5165, 5161, 5167, 5171
7817, 9680, 9678, 9679, 9681, 5171, 5167, 5169, 5173
7818, 9652, 9647, 9672, 9676, 5127, 5119, 5158, 5163
7819, 8626, 9682, 8642, 8627, 2958, 5206, 3064, 2959
7820, 9682, 9683, 8641, 8642, 5206, 5207, 3063, 3064
7821, 8625, 9683, 9682, 8626, 2957, 5207, 5206, 2958
7822, 9683, 9684, 8644, 8641, 5207, 5209, 3067, 3063
7823, 8629, 9686, 9683, 8625, 2967, 5213, 5207, 2957
7824, 9686, 9688, 9684, 9683, 5213, 5215, 5209, 5207
7825, 9688, 9689, 9685, 9684, 5215, 5216, 5210, 5209
7826, 9687, 9689, 9688, 9686, 5214, 5216, 5215, 5213
7827, 9684, 9691, 8648, 8644, 5209, 5219, 3071, 3067
7828, 9691, 9692, 8639, 8648, 5219, 5220, 3053, 3071
7829, 9685, 9692, 9691, 9684, 5210, 5220, 5219, 5209
7830, 9692, 9694, 8665, 8639, 5220, 5222, 3109, 3053
7831, 9694, 9695, 8663, 8665, 5222, 5223, 3107, 3109
7832, 9693, 9695, 9694, 9692, 5221, 5223, 5222, 5220
7833, 9689, 9696, 9692, 9685, 5216, 5224, 5220, 5210
7834, 9696, 9697, 9693, 9692, 5224, 5225, 5221, 5220
7835, 9690, 9697, 9696, 9689, 5218, 5225, 5224, 5216
7836, 8632, 9698, 9686, 8629, 2971, 5226, 5213, 2967
7837, 9698, 9699, 9687, 9686, 5226, 5227, 5214, 5213
7838, 9699, 9700, 9689, 9687, 5227, 5229, 5216, 5214
7839, 9700, 9701, 9690, 9689, 5229, 5230, 5218, 5216
7840, 9319, 9702, 9698, 8632, 4412, 5231, 5226, 2971
7841, 9702, 9703, 9699, 9698, 5231, 5232, 5227, 5226
7842, 9703, 9704, 9700, 9699, 5232, 5234, 5229, 5227
7843, 9704, 9705, 9701, 9700, 5234, 5235, 5230, 5229
7844, 9697, 9708, 9695, 9693, 5225, 5255, 5223, 5221
7845, 9708, 9709, 9706, 9695, 5255, 5256, 5251, 5223
7846, 9707, 9709, 9708, 9697, 5254, 5256, 5255, 5225
7847, 9701, 9710, 9697, 9690, 5230, 5322, 5225, 5218
7848, 9710, 9711, 9707, 9697, 5322, 5323, 5254, 5225
7849, 9705, 9712, 9710, 9701, 5235, 5325, 5322, 5230
7850, 9712, 9713, 9711, 9710, 5325, 5326, 5323, 5322
7851, 9714, 9715, 9718, 9717, 5351, 5352, 5359, 5358
7852, 9716, 9714, 9717, 9719, 5354, 5351, 5358, 5361
7853, 9715, 9721, 9722, 9718, 5352, 5374, 5375, 5359
7854, 9722, 9709, 9707, 9711, 5375, 5256, 5254, 5323
7855, 9720, 9709, 9722, 9721, 5372, 5256, 5375, 5374
7856, 9695, 9724, 8662, 8663, 5223, 5408, 3106, 3107
7857, 9724, 9725, 9723, 8662, 5408, 5409, 5407, 3106
7858, 9706, 9725, 9724, 9695, 5251, 5409, 5408, 5223
7859, 9728, 9725, 9732, 9727, 5426, 5409, 5431, 5425
7860, 9725, 9731, 9730, 9732, 5409, 5430, 5429, 5431
7861, 9723, 9725, 9728, 9726, 5407, 5409, 5426, 5420
7862, 9725, 9706, 9729, 9731, 5409, 5251, 5428, 5430
7863, 9737, 9738, 9734, 9733, 5445, 5446, 5442, 5441
7864, 9738, 9737, 9736, 9735, 5446, 5445, 5444, 5443
7865, 9741, 9742, 9740, 9739, 5449, 5450, 5448, 5447
7866, 9742, 9737, 9733, 9740, 5450, 5445, 5441, 5448
7867, 9737, 9742, 9741, 9736, 5445, 5450, 5449, 5444
7868, 9726, 9738, 9735, 9723, 5420, 5446, 5443, 5407
7869, 9738, 9744, 9743, 9734, 5446, 5452, 5451, 5442
7870, 9744, 9728, 9727, 9743, 5452, 5426, 5425, 5451
7871, 9728, 9744, 9738, 9726, 5426, 5452, 5446, 5420
7872, 9748, 9749, 9747, 9746, 5461, 5462, 5460, 5459
7873, 9749, 9741, 9739, 9747, 5462, 5449, 5447, 5460
7874, 9749, 9735, 9736, 9741, 5462, 5443, 5444, 5449
7875, 9735, 9749, 9748, 9745, 5443, 5462, 5461, 5455
7876, 9752, 9753, 9751, 9750, 5465, 5466, 5464, 5463
7877, 9720, 9753, 9752, 9709, 5372, 5466, 5465, 5256
7878, 9753, 9755, 9754, 9751, 5466, 5468, 5467, 5464
7879, 9755, 9721, 9715, 9754, 5468, 5374, 5352, 5467
7880, 9721, 9755, 9753, 9720, 5374, 5468, 5466, 5372
7881, 9752, 9729, 9706, 9709, 5465, 5428, 5251, 5256
7882, 9752, 9750, 9756, 9757, 5465, 5463, 5469, 5470
7883, 9731, 9757, 9756, 9730, 5430, 5470, 5469, 5429
7884, 9757, 9731, 9729, 9752, 5470, 5430, 5428, 5465
7885, 9665, 8710, 8707, 9759, 5145, 3172, 3169, 5472
7886, 9758, 9759, 8707, 8711, 5471, 5472, 3169, 3175
7887, 9759, 9758, 9664, 9665, 5472, 5471, 5144, 5145
7888, 9758, 8711, 8715, 9762, 5471, 3175, 3184, 5476
7889, 9762, 9761, 9760, 9758, 5476, 5475, 5473, 5471
7890, 9670, 9664, 9758, 9764, 5155, 5144, 5471, 5479
7891, 9763, 9764, 9758, 9760, 5478, 5479, 5471, 5473
7892, 9764, 9763, 9669, 9670, 5479, 5478, 5154, 5155
7893, 9763, 9760, 9761, 9766, 5478, 5473, 5475, 5482
7894, 9762, 8715, 8717, 9768, 5476, 3184, 3189, 5484
7895, 9767, 9768, 8717, 8719, 5483, 5484, 3189, 3191
7896, 9768, 9767, 9761, 9762, 5484, 5483, 5475, 5476
7897, 9767, 8719, 8728, 9771, 5483, 3191, 3237, 5487
7898, 9770, 9771, 8728, 8736, 5486, 5487, 3237, 3247
7899, 9771, 9770, 9769, 9767, 5487, 5486, 5485, 5483
7900, 9766, 9761, 9767, 9773, 5482, 5475, 5483, 5489
7901, 9772, 9773, 9767, 9769, 5488, 5489, 5483, 5485
7902, 9773, 9772, 9765, 9766, 5489, 5488, 5481, 5482
7903, 9679, 9669, 9763, 9774, 5169, 5154, 5478, 5491
7904, 9774, 9763, 9766, 9776, 5491, 5478, 5482, 5493
7905, 9775, 9776, 9766, 9765, 5492, 5493, 5482, 5481
7906, 9681, 9679, 9774, 9777, 5173, 5169, 5491, 5495
7907, 9777, 9774, 9776, 9779, 5495, 5491, 5493, 5497
7908, 9778, 9779, 9776, 9775, 5496, 5497, 5493, 5492
7909, 9772, 9769, 9770, 9782, 5488, 5485, 5486, 5513
7910, 9781, 9782, 9770, 9780, 5512, 5513, 5486, 5508
7911, 9775, 9765, 9772, 9783, 5492, 5481, 5488, 5524
7912, 9783, 9772, 9782, 9785, 5524, 5488, 5513, 5527
7913, 9784, 9785, 9782, 9781, 5526, 5527, 5513, 5512
7914, 9778, 9775, 9783, 9786, 5496, 5492, 5524, 5530
7915, 9786, 9783, 9785, 9788, 5530, 5524, 5527, 5533
7916, 9787, 9788, 9785, 9784, 5532, 5533, 5527, 5526
7917, 9770, 8736, 8735, 9790, 5486, 3247, 3246, 5536
7918, 9789, 9790, 8735, 8734, 5535, 5536, 3246, 3245
7919, 9790, 9789, 9780, 9770, 5536, 5535, 5508, 5486
7920, 9789, 8734, 8739, 9793, 5535, 3245, 3258, 5539
7921, 9792, 9793, 8739, 8742, 5538, 5539, 3258, 3261
7922, 9793, 9792, 9791, 9789, 5539, 5538, 5537, 5535
7923, 9781, 9780, 9789, 9795, 5512, 5508, 5535, 5541
7924, 9794, 9795, 9789, 9791, 5540, 5541, 5535, 5537
7925, 8757, 9792, 8742, 8743, 3327, 5538, 3261, 3263
7926, 9794, 9791, 9792, 9796, 5540, 5537, 5538, 5542
7927, 8760, 9796, 9792, 8757, 3333, 5542, 5538, 3327
7928, 9796, 8760, 8759, 9794, 5542, 3333, 3329, 5540
7929, 9784, 9781, 9795, 9798, 5526, 5512, 5541, 5544
7930, 9797, 9798, 9795, 9794, 5543, 5544, 5541, 5540
7931, 9787, 9784, 9798, 9800, 5532, 5526, 5544, 5546
7932, 9799, 9800, 9798, 9797, 5545, 5546, 5544, 5543
7933, 8762, 9797, 9794, 8759, 3335, 5543, 5540, 3329
7934, 9437, 9799, 9797, 8762, 4736, 5545, 5543, 3335
7935, 9801, 8957, 8945, 8944, 5549, 3747, 3660, 3659
7936, 9802, 9801, 8944, 8946, 5550, 5549, 3659, 3662
7937, 9803, 8959, 8957, 9801, 5553, 3751, 3747, 5549
7938, 9804, 9803, 9801, 9802, 5554, 5553, 5549, 5550
7939, 9806, 9802, 8946, 8947, 5557, 5550, 3662, 3664
7940, 9807, 9806, 8947, 8975, 5558, 5557, 3664, 3809
7941, 9810, 9804, 9802, 9806, 5561, 5554, 5550, 5557
7942, 9809, 9811, 9807, 9805, 5560, 5562, 5558, 5556
7943, 9811, 9810, 9806, 9807, 5562, 5561, 5557, 5558
7944, 9810, 9811, 9809, 9808, 5561, 5562, 5560, 5559
7945, 9812, 8961, 8959, 9803, 5565, 3755, 3751, 5553
7946, 9813, 9812, 9803, 9804, 5566, 5565, 5553, 5554
7947, 9814, 9562, 8961, 9812, 5569, 4962, 3755, 5565
7948, 9815, 9814, 9812, 9813, 5570, 5569, 5565, 5566
7949, 9817, 9816, 9808, 9809, 5572, 5571, 5559, 5560
7950, 9816, 9818, 9810, 9808, 5571, 5573, 5561, 5559
7951, 9818, 9813, 9804, 9810, 5573, 5566, 5554, 5561
7952, 9820, 9819, 9816, 9817, 5575, 5574, 5571, 5572
7953, 9819, 9821, 9818, 9816, 5574, 5576, 5573, 5571
7954, 9821, 9815, 9813, 9818, 5576, 5570, 5566, 5573
7955, 9826, 9828, 8993, 8995, 5667, 5669, 3848, 3850
7956, 9828, 9827, 8964, 8993, 5669, 5668, 3786, 3848
7957, 9827, 9828, 9826, 9825, 5668, 5669, 5667, 5666
7958, 9831, 9835, 9827, 9825, 5697, 5707, 5668, 5666
7959, 9830, 9834, 9835, 9831, 5696, 5706, 5707, 5697
7960, 9835, 9833, 9823, 9827, 5707, 5704, 5663, 5668
7961, 9832, 9833, 9835, 9834, 5703, 5704, 5707, 5706
7962, 9837, 9836, 9824, 9833, 5757, 5756, 5665, 5704
7963, 9840, 9841, 8994, 9839, 5761, 5762, 3849, 5760
7964, 9841, 9826, 8995, 8994, 5762, 5667, 3850, 3849
7965, 9826, 9841, 9840, 9822, 5667, 5762, 5761, 5638
7966, 9848, 9847, 9846, 9840, 5784, 5783, 5782, 5761
7967, 9848, 9840, 9843, 9844, 5784, 5761, 5778, 5779
7968, 9843, 9840, 9839, 9842, 5778, 5761, 5760, 5771
7969, 9846, 9845, 9822, 9840, 5782, 5780, 5638, 5761
7970, 9852, 9849, 9845, 9846, 5788, 5785, 5780, 5782
7971, 9853, 9851, 9849, 9852, 5789, 5787, 5785, 5788
7972, 9853, 9852, 9846, 9847, 5789, 5788, 5782, 5783
7973, 9855, 9854, 9845, 9849, 5799, 5797, 5780, 5785
7974, 9849, 9850, 9856, 9855, 5785, 5786, 5800, 5799
7975, 9859, 9860, 9858, 9857, 5803, 5804, 5802, 5801
7976, 9859, 9857, 9854, 9855, 5803, 5801, 5797, 5799
7977, 9855, 9856, 9860, 9859, 5799, 5800, 5804, 5803
7978, 9861, 9826, 9822, 9845, 5805, 5667, 5638, 5780
7979, 9857, 9858, 9826, 9861, 5801, 5802, 5667, 5805
7980, 9857, 9861, 9845, 9854, 5801, 5805, 5780, 5797
7981, 9862, 9831, 9825, 9826, 5806, 5697, 5666, 5667
7982, 9862, 9826, 9858, 9860, 5806, 5667, 5802, 5804
7983, 9860, 9829, 9831, 9862, 5804, 5691, 5697, 5806
7984, 9863, 9864, 9865, 9866, 5807, 5808, 5809, 5810
7985, 9868, 9863, 9866, 9869, 5815, 5807, 5810, 5816
7986, 9870, 9867, 9863, 9868, 5817, 5811, 5807, 5815
7987, 9870, 9868, 9869, 9871, 5817, 5815, 5816, 5818
7988, 9872, 9873, 9864, 9863, 5819, 5820, 5808, 5807
7989, 9874, 9875, 9873, 9872, 5821, 5822, 5820, 5819
7990, 9874, 9872, 9863, 9867, 5821, 5819, 5807, 5811
7991, 9864, 9842, 9839, 9865, 5808, 5771, 5760, 5809
7992, 9873, 9843, 9842, 9864, 5820, 5778, 5771, 5808
7993, 9875, 9844, 9843, 9873, 5822, 5779, 5778, 5820
7994, 9879, 9871, 9869, 9877, 5831, 5818, 5816, 5829
7995, 9879, 9877, 9878, 9880, 5831, 5829, 5830, 5832
7996, 9877, 9865, 9876, 9878, 5829, 5809, 5823, 5830
7997, 9869, 9866, 9865, 9877, 5816, 5810, 5809, 5829
7998, 9882, 9881, 8968, 8969, 5834, 5833, 3800, 3803
7999, 9881, 9883, 8974, 8968, 5833, 5835, 3808, 3800
8000, 9883, 9807, 8975, 8974, 5835, 5558, 3809, 3808
8001, 9807, 9883, 9881, 9805, 5558, 5835, 5833, 5556
8002, 9884, 9809, 9805, 9881, 5836, 5560, 5556, 5833
8003, 9833, 9885, 9882, 9823, 5704, 5837, 5834, 5663
8004, 9885, 9884, 9881, 9882, 5837, 5836, 5833, 5834
8005, 9884, 9885, 9833, 9824, 5836, 5837, 5704, 5665
8006, 9827, 9886, 8971, 8964, 5668, 5838, 3805, 3786
8007, 9886, 9882, 8969, 8971, 5838, 5834, 3803, 3805
8008, 9882, 9886, 9827, 9823, 5834, 5838, 5668, 5663
8009, 9836, 9887, 9884, 9824, 5756, 5839, 5836, 5665
8010, 9887, 9817, 9809, 9884, 5839, 5572, 5560, 5836
8011, 9838, 9888, 9887, 9836, 5759, 5840, 5839, 5756
8012, 9888, 9820, 9817, 9887, 5840, 5575, 5572, 5839
8013, 9890, 9889, 9832, 9834, 5843, 5841, 5703, 5706
8014, 9891, 9890, 9834, 9830, 5844, 5843, 5706, 5696
8015, 9894, 9892, 9889, 9890, 5847, 5845, 5841, 5843
8016, 9895, 9893, 9892, 9894, 5848, 5846, 5845, 5847
8017, 9895, 9894, 9890, 9891, 5848, 5847, 5843, 5844
8018, 9897, 9896, 9892, 9893, 5850, 5849, 5845, 5846
8019, 9896, 9837, 9833, 9832, 5849, 5757, 5704, 5703
8020, 9892, 9896, 9832, 9889, 5845, 5849, 5703, 5841
8021, 9898, 9899, 9900, 9901, 5851, 5852, 5853, 5854
8022, 9041, 9063, 9899, 9898, 3909, 3943, 5852, 5851
8023, 9041, 9898, 9901, 9076, 3909, 5851, 5854, 3970
8024, 9902, 9089, 9088, 9903, 5855, 4035, 4034, 5856
8025, 9904, 9092, 9089, 9902, 5857, 4044, 4035, 5855
8026, 9904, 9902, 9903, 9905, 5857, 5855, 5856, 5858
8027, 9906, 9903, 9649, 9648, 5859, 5856, 5122, 5121
8028, 9906, 9648, 9650, 9907, 5859, 5121, 5124, 5861
8029, 9908, 9907, 9650, 9651, 5862, 5861, 5124, 5125
8030, 9908, 9651, 9652, 9909, 5862, 5125, 5127, 5864
8031, 9910, 9905, 9903, 9906, 5866, 5858, 5856, 5859
8032, 9910, 9906, 9907, 9911, 5866, 5859, 5861, 5868
8033, 9899, 9911, 9907, 9908, 5852, 5868, 5861, 5862
8034, 9899, 9908, 9909, 9900, 5852, 5862, 5864, 5853
8035, 9903, 9088, 9087, 9649, 5856, 4034, 4033, 5122
8036, 9912, 9904, 9905, 9910, 5871, 5857, 5858, 5866
8037, 9058, 9054, 9904, 9912, 3931, 3926, 5857, 5871
8038, 9058, 9912, 9910, 9059, 3931, 5871, 5866, 3932
8039, 9054, 9053, 9092, 9904, 3926, 3925, 4044, 5857
8040, 9913, 9910, 9911, 9899, 5872, 5866, 5868, 5852
8041, 9060, 9059, 9910, 9913, 3933, 3932, 5866, 5872
8042, 9060, 9913, 9899, 9063, 3933, 5872, 5852, 3943
8043, 9914, 9652, 9676, 9675, 5873, 5127, 5163, 5162
8044, 9915, 9909, 9652, 9914, 5874, 5864, 5127, 5873
8045, 9915, 9914, 9675, 9916, 5874, 5873, 5162, 5876
8046, 9916, 9675, 9677, 9917, 5876, 5162, 5165, 5878
8047, 9901, 9900, 9909, 9915, 5854, 5853, 5864, 5874
8048, 9901, 9915, 9916, 9918, 5854, 5874, 5876, 5880
8049, 9918, 9916, 9917, 9919, 5880, 5876, 5878, 5882
8050, 9917, 9677, 9680, 9920, 5878, 5165, 5171, 5884
8051, 9920, 9680, 9681, 9921, 5884, 5171, 5173, 5886
8052, 9922, 9917, 9920, 9923, 5887, 5878, 5884, 5888
8053, 9924, 9919, 9917, 9922, 5889, 5882, 5878, 5887
8054, 9924, 9922, 9923, 9925, 5889, 5887, 5888, 5891
8055, 9923, 9920, 9921, 9926, 5888, 5884, 5886, 5893
8056, 9925, 9923, 9926, 9927, 5891, 5888, 5893, 5895
8057, 9928, 9901, 9918, 9929, 5897, 5854, 5880, 5898
8058, 9071, 9076, 9901, 9928, 3963, 3970, 5854, 5897
8059, 9071, 9928, 9929, 9072, 3963, 5897, 5898, 3964
8060, 9929, 9918, 9919, 9924, 5898, 5880, 5882, 5889
8061, 9072, 9929, 9924, 9080, 3964, 5898, 5889, 3977
8062, 9930, 9924, 9925, 9931, 5899, 5889, 5891, 5900
8063, 9078, 9080, 9924, 9930, 3974, 3977, 5889, 5899
8064, 9078, 9930, 9931, 9081, 3974, 5899, 5900, 3981
8065, 9931, 9925, 9927, 9932, 5900, 5891, 5895, 5901
8066, 9081, 9931, 9932, 9391, 3981, 5900, 5901, 4592
8067, 9318, 9933, 9702, 9319, 4411, 5918, 5231, 4412
8068, 9933, 9934, 9703, 9702, 5918, 5919, 5232, 5231
8069, 9934, 9935, 9704, 9703, 5919, 5921, 5234, 5232
8070, 9322, 9936, 9933, 9318, 4417, 5923, 5918, 4411
8071, 9933, 9937, 9935, 9934, 5918, 5925, 5921, 5919
8072, 9936, 9938, 9937, 9933, 5923, 5926, 5925, 5918
8073, 9938, 9939, 9935, 9937, 5926, 5927, 5921, 5925
8074, 9704, 9940, 9712, 9705, 5234, 5930, 5325, 5235
8075, 9935, 9941, 9940, 9704, 5921, 5931, 5930, 5234
8076, 9941, 9942, 9712, 9940, 5931, 5932, 5325, 5930
8077, 9939, 9943, 9941, 9935, 5927, 5933, 5931, 5921
8078, 9943, 9944, 9942, 9941, 5933, 5934, 5932, 5931
8079, 9323, 9945, 9936, 9322, 4418, 5935, 5923, 4417
8080, 9327, 9336, 9945, 9323, 4425, 4490, 5935, 4418
8081, 9336, 9337, 9936, 9945, 4490, 4491, 5923, 5935
8082, 9337, 9340, 9938, 9936, 4491, 4495, 5926, 5923
8083, 9938, 9946, 9943, 9939, 5926, 5936, 5933, 5927
8084, 9340, 9343, 9946, 9938, 4495, 4499, 5936, 5926
8085, 9343, 9346, 9943, 9946, 4499, 4506, 5933, 5936
8086, 9943, 9947, 9948, 9944, 5933, 5937, 5938, 5934
8087, 9346, 9356, 9947, 9943, 4506, 4518, 5937, 5933
8088, 9356, 9363, 9948, 9947, 4518, 4551, 5938, 5937
8089, 9942, 9949, 9713, 9712, 5932, 5947, 5326, 5325
8090, 9942, 9950, 9951, 9949, 5932, 5950, 5951, 5947
8091, 9944, 9948, 9950, 9942, 5934, 5938, 5950, 5932
8092, 9948, 9952, 9951, 9950, 5938, 5952, 5951, 5950
8093, 9956, 9955, 9954, 9953, 5967, 5966, 5965, 5964
8094, 9718, 9955, 9956, 9717, 5359, 5966, 5967, 5358
8095, 9717, 9956, 9957, 9719, 5358, 5967, 5971, 5361
8096, 9955, 9959, 9958, 9954, 5966, 5999, 5998, 5965
8097, 9951, 9959, 9713, 9949, 5951, 5999, 5326, 5947
8098, 9958, 9959, 9951, 9960, 5998, 5999, 5951, 6001
8099, 9958, 9963, 9961, 9954, 5998, 6044, 6042, 5965
8100, 9963, 9964, 9962, 9961, 6044, 6045, 6043, 6042
8101, 9960, 9964, 9963, 9958, 6001, 6045, 6044, 5998
8102, 9964, 9966, 9965, 9962, 6045, 6047, 6046, 6043
8103, 9951, 9966, 9964, 9960, 5951, 6047, 6045, 6001
8104, 9967, 9966, 9951, 9952, 6049, 6047, 5951, 5952
8105, 9966, 9970, 9968, 9965, 6047, 6052, 6050, 6046
8106, 9970, 9971, 9969, 9968, 6052, 6053, 6051, 6050
8107, 9971, 9970, 9966, 9967, 6053, 6052, 6047, 6049
8108, 9971, 9973, 9972, 9969, 6053, 6055, 6054, 6051
8109, 9973, 9971, 9967, 9952, 6055, 6053, 6049, 5952
8110, 9977, 9978, 9974, 9972, 6059, 6060, 6056, 6054
8111, 9978, 9979, 9975, 9974, 6060, 6061, 6057, 6056
8112, 9979, 9980, 9976, 9975, 6061, 6062, 6058, 6057
8113, 9980, 9979, 9978, 9977, 6062, 6061, 6060, 6059
8114, 9948, 9981, 9973, 9952, 5938, 6063, 6055, 5952
8115, 9363, 9364, 9981, 9948, 4551, 4552, 6063, 5938
8116, 9364, 9365, 9973, 9981, 4552, 4553, 6055, 6063
8117, 9365, 9370, 9972, 9973, 4553, 4562, 6054, 6055
8118, 9969, 9983, 9982, 9968, 6051, 6067, 6066, 6050
8119, 9982, 9985, 9986, 9984, 6066, 6072, 6073, 6070
8120, 9983, 9974, 9985, 9982, 6067, 6056, 6072, 6066
8121, 9974, 9975, 9986, 9985, 6056, 6057, 6073, 6072
8122, 9984, 9986, 9988, 9987, 6070, 6073, 6078, 6076
8123, 9975, 9976, 9988, 9986, 6057, 6058, 6078, 6073
8124, 9969, 9972, 9974, 9983, 6051, 6054, 6056, 6067
8125, 9370, 9371, 9977, 9972, 4562, 4566, 6059, 6054
8126, 9371, 9376, 9980, 9977, 4566, 4575, 6062, 6059
8127, 9976, 9980, 9990, 9989, 6058, 6062, 6080, 6079
8128, 9376, 9583, 9990, 9980, 4575, 5032, 6080, 6062
8129, 9921, 9681, 9777, 9991, 5886, 5173, 5495, 6082
8130, 9991, 9777, 9779, 9993, 6082, 5495, 5497, 6084
8131, 9992, 9993, 9779, 9778, 6083, 6084, 5497, 5496
8132, 9926, 9921, 9991, 9994, 5893, 5886, 6082, 6085
8133, 9927, 9926, 9994, 9996, 5895, 5893, 6085, 6087
8134, 9995, 9996, 9994, 9991, 6086, 6087, 6085, 6082
8135, 9995, 9991, 9993, 9997, 6086, 6082, 6084, 6090
8136, 9993, 9992, 9998, 9999, 6084, 6083, 6091, 6092
8137, 9997, 9993, 9999, 10001, 6090, 6084, 6092, 6094
8138, 10000, 10001, 9999, 9998, 6093, 6094, 6092, 6091
8139, 9932, 9927, 9996, 10002, 5901, 5895, 6087, 6095
8140, 9391, 9932, 10002, 9392, 4592, 5901, 6095, 4593
8141, 9394, 9392, 10002, 9996, 4598, 4593, 6095, 6087
8142, 9996, 9995, 9997, 10003, 6087, 6086, 6090, 6096
8143, 9394, 9996, 10003, 9398, 4598, 6087, 6096, 4607
8144, 10003, 9997, 10001, 10004, 6096, 6090, 6094, 6097
8145, 9398, 10003, 10004, 9399, 4607, 6096, 6097, 4611
8146, 9402, 9399, 10004, 10001, 4615, 4611, 6097, 6094
8147, 10001, 10000, 10005, 10006, 6094, 6093, 6098, 6099
8148, 9402, 10001, 10006, 9406, 4615, 6094, 6099, 4658
8149, 9417, 9406, 10006, 10005, 4669, 4658, 6099, 6098
8150, 9992, 9778, 9786, 9998, 6083, 5496, 5530, 6091
8151, 9998, 9786, 9788, 10008, 6091, 5530, 5533, 6111
8152, 10007, 10008, 9788, 9787, 6110, 6111, 5533, 5532
8153, 10000, 9998, 10008, 10005, 6093, 6091, 6111, 6098
8154, 10009, 10005, 10008, 10007, 6115, 6098, 6111, 6110
8155, 10007, 9787, 9800, 10011, 6110, 5532, 5546, 6118
8156, 10010, 10011, 9800, 9799, 6117, 6118, 5546, 5545
8157, 10009, 10007, 10011, 10013, 6115, 6110, 6118, 6120
8158, 10012, 10013, 10011, 10010, 6119, 6120, 6118, 6117
8159, 9438, 10010, 9799, 9437, 4737, 6117, 5545, 4736
8160, 10010, 9438, 9440, 10014, 6117, 4737, 4743, 6121
8161, 10012, 10010, 10014, 10015, 6119, 6117, 6121, 6122
8162, 9443, 10015, 10014, 9440, 4750, 6122, 6121, 4743
8163, 10005, 10009, 10013, 10016, 6098, 6115, 6120, 6123
8164, 9417, 10005, 10016, 9419, 4669, 6098, 6123, 4672
8165, 9418, 9419, 10016, 10013, 4671, 4672, 6123, 6120
8166, 10013, 10012, 10015, 10017, 6120, 6119, 6122, 6124
8167, 9418, 10013, 10017, 9420, 4671, 6120, 6124, 4683
8168, 9424, 9420, 10017, 10015, 4687, 4683, 6124, 6122
8169, 9426, 9424, 10015, 9443, 4689, 4687, 6122, 4750
8170, 10018, 9561, 9562, 9814, 6127, 4961, 4962, 5569
8171, 10019, 10018, 9814, 9815, 6128, 6127, 5569, 5570
8172, 10020, 9564, 9561, 10018, 6131, 4966, 4961, 6127
8173, 10021, 10020, 10018, 10019, 6132, 6131, 6127, 6128
8174, 10023, 10022, 9819, 9820, 6134, 6133, 5574, 5575
8175, 10022, 10024, 9821, 9819, 6133, 6135, 5576, 5574
8176, 10024, 10019, 9815, 9821, 6135, 6128, 5570, 5576
8177, 10026, 10021, 10019, 10024, 6138, 6132, 6128, 6135
8178, 10022, 10023, 10027, 10024, 6133, 6134, 6139, 6135
8179, 10025, 10028, 10027, 10023, 6137, 6140, 6139, 6134
8180, 10028, 10026, 10024, 10027, 6140, 6138, 6135, 6139
8181, 9571, 9566, 9564, 10020, 4986, 4970, 4966, 6131
8182, 9572, 9571, 10020, 10021, 4988, 4986, 6131, 6132
8183, 9573, 9572, 10021, 10026, 4990, 4988, 6132, 6138
8184, 9606, 9573, 10026, 10028, 5069, 4990, 6138, 6140
8185, 10031, 10030, 9838, 10029, 6207, 6206, 5759, 6203
8186, 10033, 10038, 10037, 10034, 6238, 6266, 6265, 6260
8187, 10031, 10035, 10036, 10037, 6207, 6261, 6263, 6265
8188, 10032, 10031, 10037, 10038, 6237, 6207, 6265, 6266
8189, 10033, 10039, 10040, 10038, 6238, 6267, 6268, 6266
8190, 9594, 9617, 10040, 10039, 5048, 5081, 6268, 6267
8191, 9617, 9602, 10038, 10040, 5081, 5065, 6266, 6268
8192, 9990, 10044, 10041, 9989, 6080, 6272, 6269, 6079
8193, 10044, 10045, 10042, 10041, 6272, 6273, 6270, 6269
8194, 10045, 10046, 10043, 10042, 6273, 6274, 6271, 6270
8195, 10046, 10045, 10044, 9990, 6274, 6273, 6272, 6080
8196, 10047, 10050, 10051, 10048, 6281, 6285, 6286, 6282
8197, 9989, 10041, 10051, 10050, 6079, 6269, 6286, 6285
8198, 10041, 10049, 10048, 10051, 6269, 6284, 6282, 6286
8199, 10049, 10053, 10052, 10048, 6284, 6292, 6291, 6282
8200, 10053, 10056, 10055, 10052, 6292, 6297, 6296, 6291
8201, 10049, 10041, 10042, 10053, 6284, 6269, 6270, 6292
8202, 10043, 10056, 10053, 10042, 6271, 6297, 6292, 6270
8203, 10047, 9987, 9988, 10050, 6281, 6076, 6078, 6285
8204, 9976, 9989, 10050, 9988, 6058, 6079, 6285, 6078
8205, 9583, 9584, 10046, 9990, 5032, 5033, 6274, 6080
8206, 9584, 9582, 10043, 10046, 5033, 5027, 6271, 6274
8207, 9582, 9588, 10057, 10043, 5027, 5039, 6298, 6271
8208, 9588, 9593, 10058, 10057, 5039, 5047, 6299, 6298
8209, 9593, 9594, 10039, 10058, 5047, 5048, 6267, 6299
8210, 10059, 10064, 10065, 10060, 6301, 6307, 6308, 6302
8211, 10066, 10067, 10065, 10064, 6309, 6310, 6308, 6307
8212, 10067, 10063, 10060, 10065, 6310, 6305, 6302, 6308
8213, 10063, 10067, 10066, 10062, 6305, 6310, 6309, 6304
8214, 10061, 10060, 10068, 10069, 6303, 6302, 6311, 6312
8215, 10063, 10070, 10068, 10060, 6305, 6313, 6311, 6302
8216, 10070, 10071, 10069, 10068, 6313, 6314, 6312, 6311
8217, 10062, 10072, 10070, 10063, 6304, 6315, 6313, 6305
8218, 10072, 10039, 10071, 10070, 6315, 6267, 6314, 6313
8219, 10062, 10066, 10073, 10072, 6304, 6309, 6316, 6315
8220, 10057, 10058, 10073, 10066, 6298, 6299, 6316, 6309
8221, 10058, 10039, 10072, 10073, 6299, 6267, 6315, 6316
8222, 10071, 10039, 10074, 10069, 6314, 6267, 6317, 6312
8223, 10039, 10033, 10034, 10074, 6267, 6238, 6260, 6317
8224, 10059, 10054, 10055, 10064, 6301, 6293, 6296, 6307
8225, 10056, 10066, 10064, 10055, 6297, 6309, 6307, 6296
8226, 10043, 10057, 10066, 10056, 6271, 6298, 6309, 6297
8227, 10030, 10075, 9888, 9838, 6206, 6318, 5840, 5759
8228, 10075, 10023, 9820, 9888, 6318, 6134, 5575, 5840
8229, 10076, 10025, 10023, 10075, 6319, 6137, 6134, 6318
8230, 10030, 10031, 10077, 10075, 6206, 6207, 6320, 6318
8231, 10032, 10078, 10077, 10031, 6237, 6321, 6320, 6207
8232, 10078, 10076, 10075, 10077, 6321, 6319, 6318, 6320
8233, 10083, 10081, 10082, 10084, 6328, 6326, 6327, 6329
8234, 10080, 10084, 10082, 10079, 6325, 6329, 6327, 6323
8235, 10086, 10085, 10081, 10083, 6333, 6332, 6326, 6328
8236, 10037, 10036, 10085, 10087, 6265, 6263, 6332, 6334
8237, 10034, 10037, 10087, 10088, 6260, 6265, 6334, 6335
8238, 10086, 10088, 10087, 10085, 6333, 6335, 6334, 6332
8239, 10035, 10031, 10029, 10079, 6261, 6207, 6203, 6323
8240, 10036, 10035, 10079, 10082, 6263, 6261, 6323, 6327
8241, 10085, 10036, 10082, 10081, 6332, 6263, 6327, 6326
8242, 9896, 10079, 10029, 9837, 5849, 6323, 6203, 5757
8243, 9897, 10080, 10079, 9896, 5850, 6325, 6323, 5849
8244, 9601, 9600, 10076, 10078, 5062, 5056, 6319, 6321
8245, 10025, 10076, 10089, 10028, 6137, 6319, 6336, 6140
8246, 9600, 9605, 10089, 10076, 5056, 5068, 6336, 6319
8247, 9605, 9606, 10028, 10089, 5068, 5069, 6140, 6336
8248, 10032, 10038, 10090, 10078, 6237, 6266, 6337, 6321
8249, 9602, 9603, 10090, 10038, 5065, 5066, 6337, 6266
8250, 9603, 9601, 10078, 10090, 5066, 5062, 6321, 6337
8251, 10091, 10092, 9743, 9727, 6358, 6359, 5451, 5425
8252, 9756, 10099, 10096, 9730, 5469, 6391, 6387, 5429
8253, 10098, 10099, 9756, 9750, 6390, 6391, 5469, 5463
8254, 10099, 10101, 10097, 10096, 6391, 6393, 6389, 6387
8255, 10100, 10101, 10099, 10098, 6392, 6393, 6391, 6390
8256, 9732, 10102, 10091, 9727, 5431, 6394, 6358, 5425
8257, 10096, 10102, 9732, 9730, 6387, 6394, 5431, 5429
8258, 10097, 10103, 10102, 10096, 6389, 6395, 6394, 6387
8259, 10102, 10104, 10092, 10091, 6394, 6396, 6359, 6358
8260, 10104, 10105, 10093, 10092, 6396, 6397, 6361, 6359
8261, 10103, 10105, 10104, 10102, 6395, 6397, 6396, 6394
8262, 10101, 10108, 10106, 10097, 6393, 6403, 6399, 6389
8263, 10107, 10108, 10101, 10100, 6402, 6403, 6393, 6392
8264, 10106, 10110, 10103, 10097, 6399, 6406, 6395, 6389
8265, 10105, 10111, 10094, 10093, 6397, 6407, 6383, 6361
8266, 10110, 10111, 10105, 10103, 6406, 6407, 6397, 6395
8267, 10111, 10113, 10095, 10094, 6407, 6409, 6385, 6383
8268, 10112, 10113, 10111, 10110, 6408, 6409, 6407, 6406
8269, 10108, 10114, 10110, 10106, 6403, 6410, 6406, 6399
8270, 10114, 10115, 10112, 10110, 6410, 6411, 6408, 6406
8271, 10109, 10115, 10114, 10108, 6405, 6411, 6410, 6403
8272, 9740, 10118, 10117, 9739, 5448, 6415, 6414, 5447
8273, 10116, 10118, 9740, 9733, 6413, 6415, 5448, 5441
8274, 10118, 10121, 10120, 10117, 6415, 6419, 6418, 6414
8275, 10119, 10121, 10118, 10116, 6417, 6419, 6415, 6413
8276, 9743, 10122, 9733, 9734, 5451, 6420, 5441, 5442
8277, 10122, 10123, 10116, 9733, 6420, 6421, 6413, 5441
8278, 10092, 10123, 10122, 9743, 6359, 6421, 6420, 5451
8279, 10123, 10124, 10119, 10116, 6421, 6422, 6417, 6413
8280, 10093, 10124, 10123, 10092, 6361, 6422, 6421, 6359
8281, 10121, 10127, 10126, 10120, 6419, 6426, 6425, 6418
8282, 10125, 10127, 10121, 10119, 6424, 6426, 6419, 6417
8283, 10127, 10130, 10129, 10126, 6426, 6430, 6429, 6425
8284, 10128, 10130, 10127, 10125, 6428, 6430, 6426, 6424
8285, 10124, 10131, 10125, 10119, 6422, 6431, 6424, 6417
8286, 10094, 10131, 10124, 10093, 6383, 6431, 6422, 6361
8287, 10131, 10132, 10128, 10125, 6431, 6432, 6428, 6424
8288, 10095, 10132, 10131, 10094, 6385, 6432, 6431, 6383
8289, 9751, 10133, 10098, 9750, 5464, 6433, 6390, 5463
8290, 10133, 10134, 10100, 10098, 6433, 6434, 6392, 6390
8291, 9754, 10135, 10133, 9751, 5467, 6435, 6433, 5464
8292, 9714, 10135, 9754, 9715, 5351, 6435, 5467, 5352
8293, 10135, 10136, 10134, 10133, 6435, 6436, 6434, 6433
8294, 9716, 10136, 10135, 9714, 5354, 6436, 6435, 5351
8295, 10134, 10137, 10107, 10100, 6434, 6437, 6402, 6392
8296, 10137, 10139, 10108, 10107, 6437, 6439, 6403, 6402
8297, 10139, 10140, 10109, 10108, 6439, 6440, 6405, 6403
8298, 10138, 10140, 10139, 10137, 6438, 6440, 6439, 6437
8299, 10136, 10141, 10137, 10134, 6436, 6441, 6437, 6434
8300, 10141, 10142, 10138, 10137, 6441, 6442, 6438, 6437
8301, 9719, 10143, 10136, 9716, 5361, 6443, 6436, 5354
8302, 10143, 10144, 10141, 10136, 6443, 6444, 6441, 6436
8303, 10144, 10145, 10142, 10141, 6444, 6445, 6442, 6441
8304, 9957, 10146, 10143, 9719, 5971, 6446, 6443, 5361
8305, 10146, 10147, 10144, 10143, 6446, 6447, 6444, 6443
8306, 10147, 10148, 10145, 10144, 6447, 6448, 6445, 6444
8307, 10152, 10154, 10151, 10150, 6478, 6480, 6476, 6474
8308, 10155, 10157, 10152, 10149, 6492, 6506, 6478, 6464
8309, 10157, 10159, 10154, 10152, 6506, 6508, 6480, 6478
8310, 10159, 10158, 10153, 10154, 6508, 6507, 6479, 6480
8311, 10156, 10160, 10157, 10155, 6496, 6510, 6506, 6492
8312, 10160, 10162, 10159, 10157, 6510, 6512, 6508, 6506
8313, 10162, 10161, 10158, 10159, 6512, 6511, 6507, 6508
8314, 10151, 10165, 9856, 9850, 6476, 6522, 5800, 5786
8315, 10165, 10167, 9860, 9856, 6522, 6524, 5804, 5800
8316, 10167, 10166, 9829, 9860, 6524, 6523, 5691, 5804
8317, 10166, 10167, 10165, 10164, 6523, 6524, 6522, 6521
8318, 10154, 10169, 10165, 10151, 6480, 6526, 6522, 6476
8319, 10169, 10168, 10164, 10165, 6526, 6525, 6521, 6522
8320, 10168, 10169, 10154, 10153, 6525, 6526, 6480, 6479
8321, 10168, 10170, 10166, 10164, 6525, 6527, 6523, 6521
8322, 10166, 10171, 9831, 9829, 6523, 6528, 5697, 5691
8323, 10171, 9891, 9830, 9831, 6528, 5844, 5696, 5697
8324, 10170, 10172, 10171, 10166, 6527, 6529, 6528, 6523
8325, 10172, 9895, 9891, 10171, 6529, 5848, 5844, 6528
8326, 9895, 10172, 10170, 10163, 5848, 6529, 6527, 6520
8327, 10158, 10175, 10168, 10153, 6507, 6538, 6525, 6479
8328, 10175, 10176, 10170, 10168, 6538, 6539, 6527, 6525
8329, 10176, 10173, 10163, 10170, 6539, 6533, 6520, 6527
8330, 10161, 10177, 10175, 10158, 6511, 6540, 6538, 6507
8331, 10177, 10178, 10176, 10175, 6540, 6541, 6539, 6538
8332, 10178, 10174, 10173, 10176, 6541, 6537, 6533, 6539
8333, 10173, 10179, 9895, 10163, 6533, 6542, 5848, 6520
8334, 10179, 9897, 9893, 9895, 6542, 5850, 5846, 5848
8335, 10174, 10084, 10179, 10173, 6537, 6329, 6542, 6533
8336, 10084, 10080, 9897, 10179, 6329, 6325, 5850, 6542
8337, 9844, 9875, 10182, 10181, 5779, 5822, 6566, 6565
8338, 10186, 10188, 10184, 10183, 6572, 6574, 6570, 6568
8339, 10187, 10188, 10186, 10185, 6573, 6574, 6572, 6571
8340, 10113, 10190, 10180, 10095, 6409, 6576, 6564, 6385
8341, 10189, 10190, 10113, 10112, 6575, 6576, 6409, 6408
8342, 10184, 10191, 10189, 10183, 6570, 6577, 6575, 6568
8343, 10190, 10192, 10182, 10180, 6576, 6578, 6566, 6564
8344, 10192, 10191, 10181, 10182, 6578, 6577, 6565, 6566
8345, 10191, 10192, 10190, 10189, 6577, 6578, 6576, 6575
8346, 10115, 10193, 10189, 10112, 6411, 6579, 6575, 6408
8347, 10193, 10186, 10183, 10189, 6579, 6572, 6568, 6575
8348, 10186, 10193, 10115, 10109, 6572, 6579, 6411, 6405
8349, 10188, 9853, 9847, 10184, 6574, 5789, 5783, 6570
8350, 9851, 9853, 10188, 10187, 5787, 5789, 6574, 6573
8351, 10191, 9848, 9844, 10181, 6577, 5784, 5779, 6565
8352, 9847, 9848, 10191, 10184, 5783, 5784, 6577, 6570
8353, 10130, 10196, 10195, 10129, 6430, 6583, 6582, 6429
8354, 10194, 10196, 10130, 10128, 6581, 6583, 6430, 6428
8355, 10196, 10199, 10198, 10195, 6583, 6587, 6586, 6582
8356, 10197, 10199, 10196, 10194, 6585, 6587, 6583, 6581
8357, 10132, 10200, 10194, 10128, 6432, 6588, 6581, 6428
8358, 10180, 10200, 10132, 10095, 6564, 6588, 6432, 6385
8359, 10200, 10201, 10197, 10194, 6588, 6589, 6585, 6581
8360, 10182, 10201, 10200, 10180, 6566, 6589, 6588, 6564
8361, 10199, 9870, 9871, 10198, 6587, 5817, 5818, 6586
8362, 9867, 9870, 10199, 10197, 5811, 5817, 6587, 6585
8363, 10201, 9874, 9867, 10197, 6589, 5821, 5811, 6585
8364, 9875, 9874, 10201, 10182, 5822, 5821, 6589, 6566
8365, 10140, 10203, 10186, 10109, 6440, 6591, 6572, 6405
8366, 10203, 10202, 10185, 10186, 6591, 6590, 6571, 6572
8367, 10202, 10203, 10140, 10138, 6590, 6591, 6440, 6438
8368, 10202, 10204, 10187, 10185, 6590, 6592, 6573, 6571
8369, 10142, 10205, 10202, 10138, 6442, 6593, 6590, 6438
8370, 10205, 10206, 10204, 10202, 6593, 6594, 6592, 6590
8371, 10204, 10207, 9851, 10187, 6592, 6595, 5787, 6573
8372, 10207, 10208, 9849, 9851, 6595, 6596, 5785, 5787
8373, 10208, 10151, 9850, 9849, 6596, 6476, 5786, 5785
8374, 10151, 10208, 10207, 10150, 6476, 6596, 6595, 6474
8375, 10206, 10209, 10207, 10204, 6594, 6597, 6595, 6592
8376, 10209, 10152, 10150, 10207, 6597, 6478, 6474, 6595
8377, 10152, 10209, 10206, 10149, 6478, 6597, 6594, 6464
8378, 10145, 10210, 10205, 10142, 6445, 6598, 6593, 6442
8379, 10210, 10211, 10206, 10205, 6598, 6599, 6594, 6593
8380, 10211, 10155, 10149, 10206, 6599, 6492, 6464, 6594
8381, 10148, 10212, 10210, 10145, 6448, 6600, 6598, 6445
8382, 10212, 10213, 10211, 10210, 6600, 6601, 6599, 6598
8383, 10213, 10156, 10155, 10211, 6601, 6496, 6492, 6599
8384, 9956, 10214, 10146, 9957, 5967, 6602, 6446, 5971
8385, 9953, 10215, 10214, 9956, 5964, 6603, 6602, 5967
8386, 10215, 10216, 10146, 10214, 6603, 6604, 6446, 6602
8387, 9954, 9961, 10215, 9953, 5965, 6042, 6603, 5964
8388, 9962, 10217, 10215, 9961, 6043, 6605, 6603, 6042
8389, 10217, 10218, 10216, 10215, 6605, 6606, 6604, 6603
8390, 10216, 10219, 10147, 10146, 6604, 6607, 6447, 6446
8391, 10219, 10220, 10148, 10147, 6607, 6608, 6448, 6447
8392, 10218, 10221, 10219, 10216, 6606, 6609, 6607, 6604
8393, 10221, 10222, 10220, 10219, 6609, 6610, 6608, 6607
8394, 9962, 10223, 10224, 10217, 6043, 6611, 6612, 6605
8395, 9965, 9968, 10223, 9962, 6046, 6050, 6611, 6043
8396, 9968, 9982, 10224, 10223, 6050, 6066, 6612, 6611
8397, 10217, 10224, 10225, 10218, 6605, 6612, 6613, 6606
8398, 9982, 9984, 10225, 10224, 6066, 6070, 6613, 6612
8399, 10218, 10225, 10226, 10221, 6606, 6613, 6614, 6609
8400, 9984, 9987, 10226, 10225, 6070, 6076, 6614, 6613
8401, 10221, 10226, 10227, 10222, 6609, 6614, 6615, 6610
8402, 9987, 10047, 10227, 10226, 6076, 6281, 6615, 6614
8403, 10228, 10229, 10162, 10160, 6641, 6643, 6512, 6510
8404, 10161, 10162, 10233, 10177, 6511, 6512, 6657, 6540
8405, 10229, 10234, 10233, 10162, 6643, 6658, 6657, 6512
8406, 10234, 10232, 10177, 10233, 6658, 6656, 6540, 6657
8407, 10232, 10235, 10178, 10177, 6656, 6659, 6541, 6540
8408, 10235, 10231, 10174, 10178, 6659, 6651, 6537, 6541
8409, 10230, 10236, 10234, 10229, 6647, 6661, 6658, 6643
8410, 10232, 10234, 10238, 10235, 6656, 6658, 6663, 6659
8411, 10236, 10239, 10238, 10234, 6661, 6664, 6663, 6658
8412, 10239, 10237, 10235, 10238, 6664, 6662, 6659, 6663
8413, 10231, 10083, 10084, 10174, 6651, 6328, 6329, 6537
8414, 10231, 10235, 10240, 10083, 6651, 6659, 6665, 6328
8415, 10237, 10088, 10240, 10235, 6662, 6335, 6665, 6659
8416, 10088, 10086, 10083, 10240, 6335, 6333, 6328, 6665
8417, 10061, 10069, 10239, 10236, 6303, 6312, 6664, 6661
8418, 10237, 10239, 10241, 10088, 6662, 6664, 6666, 6335
8419, 10069, 10074, 10241, 10239, 6312, 6317, 6666, 6664
8420, 10074, 10034, 10088, 10241, 6317, 6260, 6335, 6666
8421, 10220, 10242, 10212, 10148, 6608, 6667, 6600, 6448
8422, 10242, 10243, 10213, 10212, 6667, 6668, 6601, 6600
8423, 10222, 10244, 10242, 10220, 6610, 6669, 6667, 6608
8424, 10244, 10245, 10243, 10242, 6669, 6670, 6668, 6667
8425, 10156, 10213, 10246, 10160, 6496, 6601, 6671, 6510
8426, 10243, 10247, 10246, 10213, 6668, 6672, 6671, 6601
8427, 10247, 10228, 10160, 10246, 6672, 6641, 6510, 6671
8428, 10245, 10248, 10247, 10243, 6670, 6673, 6672, 6668
8429, 10228, 10247, 10249, 10229, 6641, 6672, 6674, 6643
8430, 10248, 10250, 10249, 10247, 6673, 6675, 6674, 6672
8431, 10250, 10230, 10229, 10249, 6675, 6647, 6643, 6674
8432, 10222, 10227, 10251, 10244, 6610, 6615, 6676, 6669
8433, 10047, 10048, 10251, 10227, 6281, 6282, 6676, 6615
8434, 10244, 10251, 10252, 10245, 6669, 6676, 6677, 6670
8435, 10048, 10052, 10252, 10251, 6282, 6291, 6677, 6676
8436, 10245, 10252, 10253, 10248, 6670, 6677, 6678, 6673
8437, 10052, 10055, 10253, 10252, 6291, 6296, 6678, 6677
8438, 10055, 10054, 10248, 10253, 6296, 6293, 6673, 6678
8439, 10054, 10059, 10250, 10248, 6293, 6301, 6675, 6673
8440, 10230, 10250, 10254, 10236, 6647, 6675, 6679, 6661
8441, 10059, 10060, 10254, 10250, 6301, 6302, 6679, 6675
8442, 10060, 10061, 10236, 10254, 6302, 6303, 6661, 6679
8443, 9374, 10255, 10256, 9375, 4570, 6680, 6681, 4571
8444, 9361, 9380, 10255, 9374, 4523, 4580, 6680, 4570
8445, 9380, 9381, 10256, 10255, 4580, 4581, 6681, 6680
8446, 9381, 9362, 9375, 10256, 4581, 4550, 4571, 6681
8447, 9587, 10257, 10258, 9592, 5038, 6682, 6683, 5046
8448, 9382, 9383, 10257, 9587, 4582, 4583, 6682, 5038
8449, 9383, 9597, 10258, 10257, 4583, 5052, 6683, 6682
8450, 9597, 9581, 9592, 10258, 5052, 5024, 5046, 6683
8451, 10262, 9746, 10261, 10265, 6687, 5459, 6686, 6690
8452, 10263, 10264, 10260, 10259, 6688, 6689, 6685, 6684
8453, 10264, 10265, 10261, 10260, 6689, 6690, 6686, 6685
8454, 10265, 10264, 10263, 10262, 6690, 6689, 6688, 6687
8455, 10269, 10266, 10268, 10272, 6694, 6691, 6693, 6697
8456, 10270, 10271, 10267, 9880, 6695, 6696, 6692, 5832
8457, 10271, 10272, 10268, 10267, 6696, 6697, 6693, 6692
8458, 10272, 10271, 10270, 10269, 6697, 6696, 6695, 6694
8459, 8666, 9735, 9745, 8659, 3110, 5443, 5455, 3103
8460, 9723, 9735, 8666, 8662, 5407, 5443, 3110, 3106
8461, 9745, 9748, 8661, 8659, 5455, 5461, 3105, 3103
8462, 8661, 10277, 8683, 8656, 3105, 6758, 3138, 3098
8463, 10277, 10278, 10273, 8683, 6758, 6759, 6725, 3138
8464, 9748, 10278, 10277, 8661, 5461, 6759, 6758, 3105
8465, 10278, 10262, 10274, 10273, 6759, 6687, 6727, 6725
8466, 9746, 10262, 10278, 9748, 5459, 6687, 6759, 5461
8467, 10262, 10263, 10275, 10274, 6687, 6688, 6755, 6727
8468, 10263, 10269, 10276, 10275, 6688, 6694, 6757, 6755
8469, 10266, 10269, 10263, 10259, 6691, 6694, 6688, 6684
8470, 10279, 10261, 9746, 9747, 6775, 6686, 5459, 5460
8471, 9747, 9739, 10117, 10279, 5460, 5447, 6414, 6775
8472, 10280, 10260, 10261, 10279, 6779, 6685, 6686, 6775
8473, 10279, 10117, 10120, 10280, 6775, 6414, 6418, 6779
8474, 10281, 10259, 10260, 10280, 6782, 6684, 6685, 6779
8475, 10280, 10120, 10126, 10281, 6779, 6418, 6425, 6782
8476, 8679, 10284, 10283, 8678, 3134, 6786, 6785, 3133
8477, 10282, 10284, 8679, 8673, 6784, 6786, 3134, 3127
8478, 10284, 10287, 10286, 10283, 6786, 6790, 6789, 6785
8479, 10285, 10287, 10284, 10282, 6788, 6790, 6786, 6784
8480, 8682, 10288, 10282, 8673, 3137, 6791, 6784, 3127
8481, 10273, 10288, 8682, 8683, 6725, 6791, 3137, 3138
8482, 10288, 10289, 10285, 10282, 6791, 6792, 6788, 6784
8483, 10274, 10289, 10288, 10273, 6727, 6792, 6791, 6725
8484, 10275, 10293, 10289, 10274, 6755, 6801, 6792, 6727
8485, 10289, 10294, 10287, 10285, 6792, 6802, 6790, 6788
8486, 10294, 10295, 10290, 10287, 6802, 6803, 6796, 6790
8487, 10293, 10295, 10294, 10289, 6801, 6803, 6802, 6792
8488, 10276, 10296, 10293, 10275, 6757, 6804, 6801, 6755
8489, 10295, 10297, 10292, 10290, 6803, 6805, 6800, 6796
8490, 10297, 10296, 10291, 10292, 6805, 6804, 6798, 6800
8491, 10296, 10297, 10295, 10293, 6804, 6805, 6803, 6801
8492, 10287, 10300, 10298, 10286, 6790, 6808, 6806, 6789
8493, 10300, 10301, 10299, 10298, 6808, 6809, 6807, 6806
8494, 10290, 10301, 10300, 10287, 6796, 6809, 6808, 6790
8495, 10301, 10303, 10302, 10299, 6809, 6811, 6810, 6807
8496, 10292, 10303, 10301, 10290, 6800, 6811, 6809, 6796
8497, 10269, 10270, 10304, 10276, 6694, 6695, 6839, 6757
8498, 10270, 10306, 10305, 10304, 6695, 6850, 6841, 6839
8499, 9878, 10306, 10270, 9880, 5830, 6850, 6695, 5832
8500, 10307, 10268, 10266, 10308, 6856, 6693, 6691, 6857
8501, 10308, 10129, 10195, 10307, 6857, 6429, 6582, 6856
8502, 10309, 10267, 10268, 10307, 6861, 6692, 6693, 6856
8503, 10307, 10195, 10198, 10309, 6856, 6582, 6586, 6861
8504, 9879, 9880, 10267, 10309, 5831, 5832, 6692, 6861
8505, 10309, 10198, 9871, 9879, 6861, 6586, 5818, 5831
8506, 10281, 10308, 10266, 10259, 6782, 6857, 6691, 6684
8507, 10126, 10129, 10308, 10281, 6425, 6429, 6857, 6782
8508, 9865, 8997, 8989, 9876, 5809, 3852, 3844, 5823
8509, 8994, 8997, 9865, 9839, 3849, 3852, 5809, 5760
8510, 8989, 8991, 9878, 9876, 3844, 3846, 5830, 5823
8511, 10306, 10310, 9023, 10305, 6850, 6862, 3889, 6841
8512, 10310, 8991, 8986, 9023, 6862, 3846, 3839, 3889
8513, 8991, 10310, 10306, 9878, 3846, 6862, 6850, 5830
8514, 10311, 10313, 10292, 10291, 6864, 6866, 6800, 6798
8515, 10313, 10316, 10315, 10312, 6866, 6870, 6869, 6865
8516, 10314, 10316, 10313, 10311, 6868, 6870, 6866, 6864
8517, 10296, 10317, 10311, 10291, 6804, 6871, 6864, 6798
8518, 10304, 10317, 10296, 10276, 6839, 6871, 6804, 6757
8519, 10317, 10318, 10314, 10311, 6871, 6872, 6868, 6864
8520, 10305, 10318, 10317, 10304, 6841, 6872, 6871, 6839
8521, 10303, 10320, 10319, 10302, 6811, 6874, 6873, 6810
8522, 10320, 10313, 10312, 10319, 6874, 6866, 6865, 6873
8523, 10313, 10320, 10303, 10292, 6866, 6874, 6811, 6800
8524, 10316, 9018, 9019, 10315, 6870, 3884, 3885, 6869
8525, 9015, 9018, 10316, 10314, 3878, 3884, 6870, 6868
8526, 10318, 9022, 9015, 10314, 6872, 3888, 3878, 6868
8527, 9023, 9022, 10318, 10305, 3889, 3888, 6872, 6841
8528, 7469, 10322, 7380, 7376, 635, 6945, 440, 436
8529, 10322, 10323, 7379, 7380, 6945, 6946, 439, 440
8530, 10321, 10323, 10322, 7469, 6943, 6946, 6945, 635
8531, 10323, 10324, 7382, 7379, 6946, 6949, 446, 439
8532, 7472, 10325, 10321, 7469, 639, 6950, 6943, 635
8533, 10325, 10327, 10323, 10321, 6950, 6954, 6946, 6943
8534, 10327, 10328, 10324, 10323, 6954, 6955, 6949, 6946
8535, 10326, 10328, 10327, 10325, 6952, 6955, 6954, 6950
8536, 10328, 10331, 10329, 10324, 6955, 6964, 6958, 6949
8537, 10331, 10332, 10330, 10329, 6964, 6967, 6961, 6958
8538, 10324, 10333, 7385, 7382, 6949, 6968, 454, 446
8539, 10333, 10334, 7384, 7385, 6968, 6969, 453, 454
8540, 10329, 10334, 10333, 10324, 6958, 6969, 6968, 6949
8541, 10334, 10335, 7624, 7384, 6969, 6970, 955, 453
8542, 10330, 10335, 10334, 10329, 6961, 6970, 6969, 6958
8543, 10336, 10337, 7472, 7473, 6971, 6972, 639, 640
8544, 10337, 8691, 10325, 7472, 6972, 3148, 6950, 639
8545, 8686, 8691, 10337, 10336, 3143, 3148, 6972, 6971
8546, 8691, 8690, 10326, 10325, 3148, 3147, 6952, 6950
8547, 8690, 8695, 10328, 10326, 3147, 3152, 6955, 6952
8548, 8695, 8696, 10331, 10328, 3152, 3153, 6964, 6955
8549, 8696, 9007, 10332, 10331, 3153, 3870, 6967, 6964
8550, 9003, 9007, 8696, 8692, 3866, 3870, 3153, 3149
8551, 10338, 8694, 8690, 10339, 6978, 3151, 3147, 6979
8552, 8678, 10339, 8690, 8688, 3133, 6979, 3147, 3145
8553, 10339, 8678, 10283, 10338, 6979, 3133, 6785, 6978
8554, 10298, 8693, 8694, 10338, 6806, 3150, 3151, 6978
8555, 10338, 10283, 10286, 10298, 6978, 6785, 6789, 6806
8556, 10299, 8692, 8693, 10298, 6807, 3149, 3150, 6806
8557, 7668, 7689, 7653, 7662, 1034, 1080, 1005, 1026
8558, 10340, 7703, 7697, 7718, 7068, 1120, 1112, 1136
8559, 10341, 7709, 7701, 7703, 7069, 1126, 1118, 1120
8560, 7709, 10341, 8984, 8965, 1126, 7069, 3829, 3795
8561, 9013, 10342, 10340, 9024, 3876, 7070, 7068, 3890
8562, 10342, 10341, 7703, 10340, 7070, 7069, 1120, 7068
8563, 10341, 10342, 9013, 8984, 7069, 7070, 3876, 3829
8564, 10343, 10345, 7626, 7621, 7072, 7074, 961, 951
8565, 10332, 10347, 10343, 10330, 6967, 7076, 7072, 6961
8566, 10347, 10349, 10345, 10343, 7076, 7078, 7074, 7072
8567, 10349, 10348, 10344, 10345, 7078, 7077, 7073, 7074
8568, 10348, 10349, 10347, 10346, 7077, 7078, 7076, 7075
8569, 10335, 10350, 7623, 7624, 6970, 7079, 954, 955
8570, 10350, 10343, 7621, 7623, 7079, 7072, 951, 954
8571, 10343, 10350, 10335, 10330, 7072, 7079, 6970, 6961
8572, 10345, 10351, 7631, 7626, 7074, 7080, 966, 961
8573, 10351, 7714, 7628, 7631, 7080, 1131, 963, 966
8574, 7714, 10351, 10345, 10344, 1131, 7080, 7074, 7073
8575, 10348, 7717, 7714, 10344, 7077, 1135, 1131, 7073
8576, 9007, 9008, 10347, 10332, 3870, 3871, 7076, 6967
8577, 9008, 9004, 10346, 10347, 3871, 3867, 7075, 7076
8578, 9004, 9028, 10348, 10346, 3867, 3896, 7077, 7075
8579, 10319, 9006, 9003, 10302, 6873, 3869, 3866, 6810
8580, 10352, 9005, 9006, 10319, 7089, 3868, 3869, 6873
8581, 10319, 10312, 10315, 10352, 6873, 6865, 6869, 7089
8582, 10353, 9019, 9027, 9004, 7090, 3885, 3895, 3867
8583, 10353, 9004, 9005, 10352, 7090, 3867, 3868, 7089
8584, 10352, 10315, 9019, 10353, 7089, 6869, 3885, 7090
8585, 10299, 10302, 9003, 8692, 6807, 6810, 3866, 3149
8586, 9028, 10354, 7717, 10348, 3896, 7091, 1135, 7077
8587, 10354, 10340, 7718, 7717, 7091, 7068, 1136, 1135
8588, 10340, 10354, 9028, 9024, 7068, 7091, 3896, 3890
8589, 7459, 10336, 7473, 7454, 625, 6971, 640, 617
8590, 7467, 10355, 10336, 7459, 633, 7116, 6971, 625
8591, 10355, 8674, 8686, 10336, 7116, 3129, 3143, 6971
8592, 8652, 8674, 10355, 7467, 3075, 3129, 7116, 633
8593, 7447, 7403, 7396, 7397, 572, 486, 477, 478
8594, 7260, 7271, 7230, 7228, 160, 198, 101, 98
8595, 7252, 7264, 7271, 7260, 139, 173, 198, 160
8596, 7351, 7369, 7337, 7334, 372, 421, 316, 312
8597, 7363, 7388, 7366, 7364, 384, 457, 388, 385
8598, 7370, 7390, 7388, 7363, 425, 459, 457, 384
8599, 7407, 7464, 7457, 7401, 490, 630, 622, 484
8600, 7406, 7462, 7464, 7407, 489, 628, 630, 490
8601, 7566, 7541, 7525, 7527, 788, 736, 699, 701
8602, 7541, 7566, 7546, 7534, 736, 788, 764, 729
8603, 7618, 7610, 7603, 7606, 938, 900, 858, 861
8604, 7613, 7615, 10356, 7617, 903, 905, 7154, 907
8605, 7629, 7712, 10356, 7615, 964, 1129, 7154, 905
8606, 7712, 7619, 7617, 10356, 1129, 941, 907, 7154
8607, 7705, 7669, 7664, 7699, 1122, 1035, 1029, 1114
8608, 7669, 7705, 7707, 7670, 1035, 1122, 1124, 1036
8609, 7774, 7809, 7805, 7766, 1228, 1339, 1317, 1205
8610, 7728, 7731, 7809, 7774, 1146, 1151, 1339, 1228
8611, 7940, 7957, 7951, 7935, 1556, 1607, 1579, 1538
8612, 7899, 7903, 7957, 7940, 1484, 1490, 1607, 1556
8613, 8057, 8097, 8119, 8071, 1740, 1841, 1864, 1758
8614, 8062, 8059, 8071, 8119, 1747, 1744, 1758, 1864
8615, 8181, 8202, 8230, 8195, 1986, 2030, 2061, 2004
8616, 8186, 8182, 8195, 8230, 1993, 1989, 2004, 2061
8617, 9713, 9959, 9722, 9711, 5326, 5999, 5375, 5323
8618, 9959, 9955, 9718, 9722, 5999, 5966, 5359, 5375
8619, 10029, 9838, 9836, 9837, 6203, 5759, 5756, 5757
